 MoSSe                                  
   1.00000000000000     
     3.2295405533767232   -0.0000000000041834    0.0000000000000000
    -1.6147702760961125    2.7968641617469676    0.0000000000000000
     0.0000000000000000    0.0000000000000000   27.0926918340812044
   Mo   W    S    Se
     1     1     2     2
Direct
  0.3333333329999988  0.6666666670000012  0.6234575244560721
  0.3333333333333357  0.6666666666666643  0.3766189352947112
  0.6666666666666643  0.3333333333333357  0.4335928167802169
  0.6666666670000012  0.3333333329999988  0.5666836740602224
  0.6666666666666643  0.3333333333333357  0.3132402317397052
  0.6666666659999976  0.3333333329999988  0.6866370126824668
 
  0.00000000E+00  0.00000000E+00  0.00000000E+00
  0.00000000E+00  0.00000000E+00  0.00000000E+00
  0.00000000E+00  0.00000000E+00  0.00000000E+00
  0.00000000E+00  0.00000000E+00  0.00000000E+00
  0.00000000E+00  0.00000000E+00  0.00000000E+00
  0.00000000E+00  0.00000000E+00  0.00000000E+00
