#------------------ General system descriptors --------------#
SystemName        twist34
SystemLabel       twist34

NumberOfSpecies   3
NumberOfAtoms     222

%block ChemicalSpeciesLabel
	1	42	Mo
	2	34	Se
	3	16	S
%endblock ChemicalSpeciesLabel

LatticeConstant        1.0 Ang
%block LatticeVectors
	16.14550	11.18530	0.000000
	-17.7595	8.389800	0.000000
	0.000000	0.000000	30.63480
%endblock LatticeVectors

AtomicCoordinatesFormat  Ang

%block AtomicCoordinatesAndAtomicSpecies
	-16.14554	9.321140	11.67697	1
	-12.91643	9.321140	11.67697	1
	-11.30188	12.11746	11.67697	1
	-11.30188	6.524830	11.67697	1
	-9.68732	9.321140	11.67697	1
	-8.07277	12.11746	11.67697	1
	-6.45822	14.91377	11.67697	1
	-8.07277	6.524830	11.67697	1
	-6.45822	9.321140	11.67697	1
	-4.84366	12.11746	11.67697	1
	-3.22911	14.91377	11.67697	1
	-1.61455	17.71008	11.67697	1
	-6.45822	3.728520	11.67697	1
	-4.84366	6.524830	11.67697	1
	-3.22911	9.321140	11.67697	1
	-1.61455	12.11746	11.67697	1
	0.000000	14.91377	11.67697	1
	1.614550	17.71008	11.67697	1
	-3.22911	3.728520	11.67697	1
	-1.61455	6.524830	11.67697	1
	0.000000	9.321140	11.67697	1
	1.614550	12.11746	11.67697	1
	3.229110	14.91377	11.67697	1
	-1.61455	0.932200	11.67697	1
	0.000000	3.728520	11.67697	1
	1.614550	6.524830	11.67697	1
	3.229110	9.321140	11.67697	1
	4.843660	12.11746	11.67697	1
	6.458220	14.91377	11.67697	1
	3.229110	3.728520	11.67697	1
	4.843660	6.524830	11.67697	1
	6.458220	9.321140	11.67697	1
	8.072770	12.11746	11.67697	1
	8.072770	6.524830	11.67697	1
	9.687320	9.321140	11.67697	1
	11.30188	12.11746	11.67697	1
	12.91643	9.321140	11.67697	1
	-14.26908	7.078900	18.89796	1
	-13.1345	10.10196	18.89796	1
	-11.08361	7.607960	18.89796	1
	-9.94903	10.63102	18.89796	1
	-8.81445	13.65408	18.89796	1
	-9.03272	5.113970	18.89796	1
	-7.89814	8.137030	18.89796	1
	-6.76356	11.16009	18.89796	1
	-5.62898	14.18315	18.89796	1
	-4.49440	17.20620	18.89796	1
	-5.84725	5.643040	18.89796	1
	-4.71267	8.666100	18.89796	1
	-3.57809	11.68915	18.89796	1
	-2.44351	14.71221	18.89796	1
	-1.30893	17.73527	18.89796	1
	-3.79636	3.149040	18.89796	1
	-2.66178	6.172100	18.89796	1
	-1.52720	9.195160	18.89796	1
	-0.39262	12.21822	18.89796	1
	0.741960	15.24128	18.89796	1
	-0.61089	3.678110	18.89796	1
	0.523690	6.701170	18.89796	1
	1.658270	9.724230	18.89796	1
	2.792850	12.74728	18.89796	1
	3.927430	15.77034	18.89796	1
	1.440000	1.184120	18.89796	1
	2.574580	4.207180	18.89796	1
	3.709170	7.230230	18.89796	1
	4.843750	10.25329	18.89796	1
	5.978330	13.27635	18.89796	1
	5.760060	4.736240	18.89796	1
	6.894640	7.759300	18.89796	1
	8.029220	10.78236	18.89796	1
	9.163800	13.80542	18.89796	1
	10.08011	8.288370	18.89796	1
	11.21469	11.31142	18.89796	1
	14.40016	11.84049	18.89796	1
	-14.53099	10.25294	13.38910	2
	-12.91643	7.456630	13.38910	2
	-11.30188	10.25294	13.38910	2
	-9.68732	13.04926	13.38910	2
	-9.68732	7.456630	13.38910	2
	-8.07277	10.25294	13.38910	2
	-6.45822	13.04926	13.38910	2
	-4.84366	15.84557	13.38910	2
	-8.07277	4.660320	13.38910	2
	-6.45822	7.456630	13.38910	2
	-4.84366	10.25294	13.38910	2
	-3.22911	13.04926	13.38910	2
	-1.61455	15.84557	13.38910	2
	-0.00000	18.64188	13.38910	2
	-4.84366	4.660320	13.38910	2
	-3.22911	7.456630	13.38910	2
	-1.61455	10.25294	13.38910	2
	-0.00000	13.04926	13.38910	2
	1.614550	15.84557	13.38910	2
	-3.22911	1.864000	13.38910	2
	-1.61455	4.660320	13.38910	2
	-0.00000	7.456630	13.38910	2
	1.614550	10.25294	13.38910	2
	3.229110	13.04926	13.38910	2
	4.843660	15.84557	13.38910	2
	-0.00000	1.864000	13.38910	2
	1.614550	4.660320	13.38910	2
	3.229110	7.456630	13.38910	2
	4.843660	10.25294	13.38910	2
	6.458220	13.04926	13.38910	2
	4.843660	4.660320	13.38910	2
	6.458220	7.456630	13.38910	2
	8.072770	10.25294	13.38910	2
	9.687320	13.04926	13.38910	2
	9.687320	7.456630	13.38910	2
	11.30188	10.25294	13.38910	2
	14.53099	10.25294	13.38910	2
	-16.0145	7.733660	17.18503	2
	-12.82903	8.262720	17.18503	2
	-11.69445	11.28578	17.18503	2
	-10.77814	5.768730	17.18503	2
	-9.64356	8.791790	17.18503	2
	-8.50898	11.81485	17.18503	2
	-7.37440	14.83791	17.18503	2
	-7.59267	6.297800	17.18503	2
	-6.45809	9.320860	17.18503	2
	-5.32351	12.34391	17.18503	2
	-4.18893	15.36697	17.18503	2
	-3.05435	18.39003	17.18503	2
	-5.54178	3.803800	17.18503	2
	-4.40720	6.826860	17.18503	2
	-3.27262	9.849920	17.18503	2
	-2.13804	12.87298	17.18503	2
	-1.00345	15.89604	17.18503	2
	-2.35630	4.332870	17.18503	2
	-1.22172	7.355930	17.18503	2
	-0.08714	10.37899	17.18503	2
	1.047440	13.40204	17.18503	2
	2.182020	16.42510	17.18503	2
	-0.30541	1.838880	17.18503	2
	0.829170	4.861940	17.18503	2
	1.963750	7.884990	17.18503	2
	3.098330	10.90805	17.18503	2
	4.232910	13.93111	17.18503	2
	2.880060	2.367940	17.18503	2
	4.014640	5.391000	17.18503	2
	5.149220	8.414060	17.18503	2
	6.283800	11.43712	17.18503	2
	7.418380	14.46018	17.18503	2
	7.200110	5.920070	17.18503	2
	8.334690	8.943130	17.18503	2
	9.469270	11.96618	17.18503	2
	11.52016	9.472190	17.18503	2
	12.65474	12.49525	17.18503	2
	-14.53099	10.25320	10.14046	3
	-12.91643	7.456890	10.14046	3
	-11.30188	10.25320	10.14046	3
	-9.68732	13.04951	10.14046	3
	-9.68732	7.456890	10.14046	3
	-8.07277	10.25320	10.14046	3
	-6.45822	13.04951	10.14046	3
	-4.84366	15.84583	10.14046	3
	-8.07277	4.660570	10.14046	3
	-6.45822	7.456890	10.14046	3
	-4.84366	10.25320	10.14046	3
	-3.22911	13.04951	10.14046	3
	-1.61455	15.84583	10.14046	3
	-0.00000	18.64214	10.14046	3
	-4.84366	4.660570	10.14046	3
	-3.22911	7.456890	10.14046	3
	-1.61455	10.25320	10.14046	3
	-0.00000	13.04951	10.14046	3
	1.614550	15.84583	10.14046	3
	-3.22911	1.864260	10.14046	3
	-1.61455	4.660570	10.14046	3
	-0.00000	7.456890	10.14046	3
	1.614550	10.25320	10.14046	3
	3.229110	13.04951	10.14046	3
	4.843660	15.84583	10.14046	3
	-0.00000	1.864260	10.14046	3
	1.614550	4.660570	10.14046	3
	3.229110	7.456890	10.14046	3
	4.843660	10.25320	10.14046	3
	6.458220	13.04951	10.14046	3
	4.843660	4.660570	10.14046	3
	6.458220	7.456890	10.14046	3
	8.072770	10.25320	10.14046	3
	9.687320	13.04951	10.14046	3
	9.687320	7.456890	10.14046	3
	11.30188	10.25320	10.14046	3
	14.53099	10.25320	10.14046	3
	-16.01454	7.733920	20.43527	3
	-12.82907	8.262980	20.43527	3
	-11.69449	11.28604	20.43527	3
	-10.77818	5.768990	20.43527	3
	-9.64360	8.792050	20.43527	3
	-8.50902	11.81511	20.43527	3
	-7.37444	14.83816	20.43527	3
	-7.59271	6.298050	20.43527	3
	-6.45813	9.321110	20.43527	3
	-5.32355	12.34417	20.43527	3
	-4.18897	15.36723	20.43527	3
	-3.05439	18.39029	20.43527	3
	-5.54182	3.804060	20.43527	3
	-4.40724	6.827120	20.43527	3
	-3.27266	9.850180	20.43527	3
	-2.13808	12.87324	20.43527	3
	-1.00350	15.89629	20.43527	3
	-2.35635	4.333130	20.43527	3
	-1.22177	7.356190	20.43527	3
	-0.08719	10.37924	20.43527	3
	1.047390	13.40230	20.43527	3
	2.181970	16.42536	20.43527	3
	-0.30546	1.839140	20.43527	3
	0.829120	4.862190	20.43527	3
	1.963700	7.885250	20.43527	3
	3.098280	10.90831	20.43527	3
	4.232860	13.93137	20.43527	3
	2.880010	2.368200	20.43527	3
	4.014600	5.391260	20.43527	3
	5.149180	8.414320	20.43527	3
	6.283760	11.43737	20.43527	3
	7.418340	14.46043	20.43527	3
	7.200070	5.920320	20.43527	3
	8.334650	8.943380	20.43527	3
	9.469230	11.96644	20.43527	3
	11.52012	9.472450	20.43527	3
	12.65470	12.49551	20.43527	3
%endblock AtomicCoordinatesAndAtomicSpecies
#------------------------------------------------------------#

#-----------------------opt parameters------------------------#
#Memory 
#Diag.Memory                2.0    #1.0

#Pseudopotentials
#Basis setting
PAO.BasisType            split
PAO.BasisSize            DZP         #SZ DZ SZP DZP
PAO.SplitNorm            0.15   
PAO.EnergyShift          110 meV     #0.02 Ry - [100,200] meV  
ElectronicTemperatur     300 K 

#Structural Relaxation 
MD.TypeOfRun             cg
MD.MaxCGDispl            0.01 Ang   #0.2 Bohr
MD.VariableCell          T
MD.PreconditionVariableCell     5.0 Ang

#Self-Consistent loop
XC.function              GGA   #LDA
XC.author           	 PBE   #PZ
SolutionMethod    	 diagon
OccupationFunction  	 FD
spinPolarized		 T
SingleExction            T


#standard output
WriteCoorInitial         T
WriteCoorStep            T           
WriteForce               T           
WriteKpoint              T           

#optical output
WriteDM                  T
WriteCoorXmol            T
#WriteMDhistory                        F            # .false.
#WriteCoorCerius                      T              # .false.
#WriteMDXmol                           T              # .false.
#WriteDM.NetCDF          T             # .ture.
#SaveHS                  T            # .false.
#%block ProjectedDensityOfStates
#-20.00 10.00 0.200 500 eV
#%endblock ProjectedDensityOfStates
#%block LocalDensityOfStates
#-3.50 0.00 eV
#%endblock LocalDensityOfStates
#COOP.Write              T           # .false.
#SaveRho                 T            # .false.
#SaveDeltaRho            T            # .false.
#SaveElectrostaticPotential    T      # .false.
#SaveNeutralAtomPotential      T      # .false.
#SaveTotalPotential            T      # .false.
#SaveIonicCharge               T      # .false.
#SaveTotalCharge               T      # .false.
#WriteDenchar                  T      # .false.

#NectCDF
#WriteDM.NetCDF                T
#WriteDMHS.NetCDF              T
#Use.New.Diagk                 T

# Restart
#DM.UseSaveDM                          T              # .false.
#MD.UseSaveXV                          T              # .false.
#MD.UseSaveCG                          T              # .false.

#kgrid_cutoff              [6,1,1,1]    # 0.0 Bohr
#%block GridCellSampling
#0.5 0.5 0.0
#0.5 0.0 0.5
#0.0 0.5 0.5
#%endblock GridCellSampling
#FilterCutoff             200 Ry             
# it should be similar or lower than the meshcuoff to avoid
# the eggbox effect on the atomic forces.
#----------------------------------------------------------------#

#------------------ Some Important parameters--------------------#
DM.MixingWeight             0.04    
DM.NumberPulay              4    
MeshCutoff                  600 Ry
%block kgrid_Monkhorst_Pack
5 0 0 0.0
0 5 0 0.0
0 0 1 0.0
%endblock kgrid_Monkhorst_Pack
#----------------------------------------------------------------#

#----------------------Band structure ---------------------------#
#BandLinesScale    ReciprocalLatticeVectors
#%block BandLines
#1   0.00       0.00      0.00   \Gamma
#51  0.50       0.00      0.00   M
#51  0.333333   0.333333  0.00   K
#51  0.00       0.00      0.00   \Gamma
#%endblock BandLines
#----------------------------------------------------------------#

#------------------Control Iteration Parameters------------------#
MaxSCFIterations              100            
DM.Tolerance                  1.d-5         
SCFMustConverge               .false.
DM.Energy.Tolerance           1.d-4 eV
DM.Require.Energy.Convergence   T
DM.Harris.Tolerance           1.d-5 eV
DM.Require.Harris.Convergence   T

#MD.NumCGsteps                 40           
#MD.MaxForceTol                0.02 ev/Ang  
#MD.TargetPressure             0.0 GPa
#MD.MaxStressTol               1.0 GPa
#----------------------------------------------------------------#
