 ABSS
   1.000
    3.2300000000000000    0.0000000000000000    0.0000000000000000
   -1.6150000000000000    2.7972620542237365    0.0000000000000000
    0.0000000000000000    0.0000000000000000   31.6377586181568766
   Mo   Se   S 
    2    2    2
Direct
    0.3333333333333358    0.6666666666666644    0.3963106085377082  
    0.6666666666666643    0.3333333333333357    0.6036893991069846  
    0.6666666666666643    0.3333333333333357    0.3476858184791608  
    0.3333333333333358    0.6666666666666644    0.6523141815208392  
    0.6666666666666643    0.3333333333333357    0.4505147428537016  
    0.3333333333333358    0.6666666666666644    0.5494852504571899  
