Global Parameters
ISTART =  1           (Read existing wavefunction; if there)
# ISPIN =  2           (Spin polarised DFT)
ICHARG =  11         (Non-self-consistent: GGA/LDA band structures)
LREAL  = Auto          (Projection operators: automatic)
ENCUT  =  500        (Cut-off energy for plane wave basis set, in eV)
PREC   =  Normal       (Precision level)
LWAVE  = F        (Write WAVECAR or not)
LCHARG = F        (Write CHGCAR or not)
ADDGRID= F        (Increase grid; helps GGA convergence)
# LVTOT  = .TRUE.      (Write total electrostatic potential into LOCPOT or not)
# LVHAR  = .TRUE.      (Write ionic + Hartree electrostatic potential into LOCPOT or not)
NPAR   = 4           (Max is no. nodes; don't set for hybrids)


Static Calculation
ISMEAR =  0            (gaussian smearing method)
SIGMA  =  0.05         (please check the width of the smearing)
LORBIT =  11           (PAW radii for projected DOS)
#NEDOS  =  2001         (DOSCAR points)
NELM   =  60           (Max electronic SCF steps)
NELMIN  =  10           (Max electronic SCF steps)
EDIFF  =  1E-08        (SCF energy convergence; in eV)

 
Spin orbit coupling
LNONCOLLINEAR = T
LSORBIT = T
LMAXMIX = 4
SAXIS = 0 0 1
GGA_COMPAT = F
LORBMOM = T
