MoSSe                                   
   1.00000000000000     
     3.2484878775389254    0.0000000000000000    0.0000000000000000
    -1.6242439381700948    2.8132730258025092    0.0000000000000000
     0.0000000000000000    0.0000000000000000   23.9703957486509083
   Mo   S    Se
     1     1     1
Direct
  0.3333333329999988  0.6666666670000012  0.4975370816955011
  0.6666666670000012  0.3333333329999988  0.4337723284552460
  0.6666666659999976  0.3333333329999988  0.5686905508492532
