AASeSe                                     
   1.00000000000000     
     3.2291080790674460    0.0000000000000000    0.0000000000000000
     1.6145540395337230    2.7963132629259593    0.0000000000000000
     0.0000000000000000    0.0000000000000000   30.6347712289142429
   Mo   Se   S 
  2     2     2
Direct
  0.3333156979971298  0.3333686040057471  0.3811672918189101
  0.3333193994895237  0.3333612010209600  0.6168795062787047
  0.6667035914521677  0.6665928170956600  0.4370555538548860
  0.6666918393754466  0.6666163212490995  0.5609647536123157
  0.6666576020953021  0.6666847958093890  0.3310114758968098
  0.6666452029237598  0.6667095941524737  0.6670614035383712
