#------------------ General system descriptors --------------#
SystemName        twist15
SystemLabel       twist15

NumberOfSpecies   3
NumberOfAtoms     186

%block ChemicalSpeciesLabel
	1	42	Mo
	2	34	Se
	3	16	S
%endblock ChemicalSpeciesLabel

LatticeConstant        1.0 Ang
%block LatticeVectors
	11.30190	13.98160	0.000000
	-17.7593	2.796900	0.000000
	0.000000	0.000000	30.63480
%endblock LatticeVectors

AtomicCoordinatesFormat  Ang

%block AtomicCoordinatesAndAtomicSpecies
	-16.14554	3.728520	11.67697	1
	-14.53099	6.524830	11.67697	1
	-12.91643	3.728520	11.67697	1
	-11.30188	6.524830	11.67697	1
	-9.68732	9.321140	11.67697	1
	-8.07277	12.11746	11.67697	1
	-6.45822	14.91377	11.67697	1
	-9.68732	3.728520	11.67697	1
	-8.07277	6.524830	11.67697	1
	-6.45822	9.321140	11.67697	1
	-4.84366	12.11746	11.67697	1
	-3.22911	14.91377	11.67697	1
	-6.45822	3.728520	11.67697	1
	-4.84366	6.524830	11.67697	1
	-3.22911	9.321140	11.67697	1
	-1.61455	12.11746	11.67697	1
	0.000000	14.91377	11.67697	1
	-4.84366	0.932200	11.67697	1
	-3.22911	3.728520	11.67697	1
	-1.61455	6.524830	11.67697	1
	0.000000	9.321140	11.67697	1
	1.614550	12.11746	11.67697	1
	3.229110	14.91377	11.67697	1
	-1.61455	0.932200	11.67697	1
	0.000000	3.728520	11.67697	1
	1.614550	6.524830	11.67697	1
	3.229110	9.321140	11.67697	1
	4.843660	12.11746	11.67697	1
	4.843660	6.524830	11.67697	1
	6.458220	9.321140	11.67697	1
	8.072770	12.11746	11.67697	1
	-14.11387	3.577790	18.89796	1
	-11.04112	2.585620	18.89796	1
	-11.71808	5.742820	18.89796	1
	-12.39503	8.900020	18.89796	1
	-7.96838	1.593450	18.89796	1
	-8.64533	4.750650	18.89796	1
	-9.32229	7.907840	18.89796	1
	-9.99924	11.06504	18.89796	1
	-5.57259	3.758480	18.89796	1
	-6.24954	6.915670	18.89796	1
	-6.92650	10.07287	18.89796	1
	-7.60345	13.23006	18.89796	1
	-2.49985	2.766300	18.89796	1
	-3.17680	5.923500	18.89796	1
	-3.85375	9.080700	18.89796	1
	-4.53071	12.23789	18.89796	1
	-5.20766	15.39509	18.89796	1
	0.572890	1.774130	18.89796	1
	-0.10406	4.931330	18.89796	1
	-0.78101	8.088520	18.89796	1
	-1.45796	11.24572	18.89796	1
	-2.13492	14.40292	18.89796	1
	2.968680	3.939160	18.89796	1
	2.291730	7.096350	18.89796	1
	1.614780	10.25355	18.89796	1
	0.937820	13.41074	18.89796	1
	4.687520	9.261380	18.89796	1
	4.010570	12.41857	18.89796	1
	7.083310	11.42640	18.89796	1
	6.406360	14.58360	18.89796	1
	9.479100	13.59142	18.89796	1
	-14.53099	4.660320	13.38910	2
	-12.91643	7.456630	13.38910	2
	-11.30188	10.25294	13.38910	2
	-11.30188	4.660320	13.38910	2
	-9.68732	7.456630	13.38910	2
	-8.07277	10.25294	13.38910	2
	-6.45822	13.04926	13.38910	2
	-4.84366	15.84557	13.38910	2
	-9.68732	1.864000	13.38910	2
	-8.07277	4.660320	13.38910	2
	-6.45822	7.456630	13.38910	2
	-4.84366	10.25294	13.38910	2
	-3.22911	13.04926	13.38910	2
	-1.61455	15.84557	13.38910	2
	-6.45822	1.864000	13.38910	2
	-4.84366	4.660320	13.38910	2
	-3.22911	7.456630	13.38910	2
	-1.61455	10.25294	13.38910	2
	-0.00000	13.04926	13.38910	2
	-3.22911	1.864000	13.38910	2
	-1.61455	4.660320	13.38910	2
	-0.00000	7.456630	13.38910	2
	1.614550	10.25294	13.38910	2
	3.229110	13.04926	13.38910	2
	-0.00000	1.864000	13.38910	2
	1.614550	4.660320	13.38910	2
	3.229110	7.456630	13.38910	2
	4.843660	10.25294	13.38910	2
	6.458220	13.04926	13.38910	2
	8.072770	10.25294	13.38910	2
	9.687320	13.04926	13.38910	2
	-15.93656	3.186680	17.18503	2
	-12.86382	2.194510	17.18503	2
	-13.54077	5.351710	17.18503	2
	-10.46803	4.359530	17.18503	2
	-11.14498	7.516730	17.18503	2
	-7.39529	3.367360	17.18503	2
	-8.07224	6.524560	17.18503	2
	-8.74920	9.681750	17.18503	2
	-9.42615	12.83895	17.18503	2
	-4.32255	2.375190	17.18503	2
	-4.99950	5.532390	17.18503	2
	-5.67645	8.689580	17.18503	2
	-6.35341	11.84678	17.18503	2
	-7.03036	15.00397	17.18503	2
	-1.24980	1.383020	17.18503	2
	-1.92676	4.540210	17.18503	2
	-2.60371	7.697410	17.18503	2
	-3.28066	10.85461	17.18503	2
	-3.95762	14.01180	17.18503	2
	1.145990	3.548040	17.18503	2
	0.469030	6.705240	17.18503	2
	-0.20792	9.862430	17.18503	2
	-0.88487	13.01963	17.18503	2
	3.541780	5.713070	17.18503	2
	2.864820	8.870260	17.18503	2
	2.187870	12.02746	17.18503	2
	1.510920	15.18466	17.18503	2
	5.937570	7.878090	17.18503	2
	5.260610	11.03529	17.18503	2
	4.583660	14.19248	17.18503	2
	7.656400	13.20031	17.18503	2
	-14.53099	4.660570	10.14046	3
	-12.91643	7.456890	10.14046	3
	-11.30188	10.25320	10.14046	3
	-11.30188	4.660570	10.14046	3
	-9.68732	7.456890	10.14046	3
	-8.07277	10.25320	10.14046	3
	-6.45822	13.04951	10.14046	3
	-4.84366	15.84583	10.14046	3
	-9.68732	1.864260	10.14046	3
	-8.07277	4.660570	10.14046	3
	-6.45822	7.456890	10.14046	3
	-4.84366	10.25320	10.14046	3
	-3.22911	13.04951	10.14046	3
	-1.61455	15.84583	10.14046	3
	-6.45822	1.864260	10.14046	3
	-4.84366	4.660570	10.14046	3
	-3.22911	7.456890	10.14046	3
	-1.61455	10.25320	10.14046	3
	-0.00000	13.04951	10.14046	3
	-3.22911	1.864260	10.14046	3
	-1.61455	4.660570	10.14046	3
	-0.00000	7.456890	10.14046	3
	1.614550	10.25320	10.14046	3
	3.229110	13.04951	10.14046	3
	-0.00000	1.864260	10.14046	3
	1.614550	4.660570	10.14046	3
	3.229110	7.456890	10.14046	3
	4.843660	10.25320	10.14046	3
	6.458220	13.04951	10.14046	3
	8.072770	10.25320	10.14046	3
	9.687320	13.04951	10.14046	3
	-15.93674	3.186880	20.43527	3
	-12.8640	2.194700	20.43527	3
	-13.54095	5.351900	20.43527	3
	-10.46821	4.359730	20.43527	3
	-11.14516	7.516920	20.43527	3
	-7.39546	3.367560	20.43527	3
	-8.07242	6.524750	20.43527	3
	-8.74937	9.681950	20.43527	3
	-9.42632	12.83914	20.43527	3
	-4.32272	2.375380	20.43527	3
	-4.99967	5.532580	20.43527	3
	-5.67663	8.689780	20.43527	3
	-6.35358	11.84697	20.43527	3
	-7.03053	15.00417	20.43527	3
	-1.24998	1.383210	20.43527	3
	-1.92693	4.540410	20.43527	3
	-2.60388	7.697600	20.43527	3
	-3.28084	10.85480	20.43527	3
	-3.95779	14.01200	20.43527	3
	1.145810	3.548240	20.43527	3
	0.468860	6.705430	20.43527	3
	-0.20809	9.862630	20.43527	3
	-0.88505	13.01982	20.43527	3
	3.541600	5.713260	20.43527	3
	2.864650	8.870460	20.43527	3
	2.187700	12.02765	20.43527	3
	1.510740	15.18485	20.43527	3
	5.937390	7.878280	20.43527	3
	5.260440	11.03548	20.43527	3
	4.583490	14.19268	20.43527	3
	7.656230	13.20050	20.43527	3
%endblock AtomicCoordinatesAndAtomicSpecies
#------------------------------------------------------------#

#-----------------------opt parameters------------------------#
#Memory 
#Diag.Memory                2.0    #1.0

#Pseudopotentials
#Basis setting
PAO.BasisType            split
PAO.BasisSize            DZP         #SZ DZ SZP DZP
PAO.SplitNorm            0.15   
PAO.EnergyShift          110 meV     #0.02 Ry - [100,200] meV  
ElectronicTemperatur     300 K 

#Structural Relaxation 
MD.TypeOfRun             cg
MD.MaxCGDispl            0.01 Ang   #0.2 Bohr
MD.VariableCell          T
MD.PreconditionVariableCell     5.0 Ang

#Self-Consistent loop
XC.function              GGA   #LDA
XC.author           	 PBE   #PZ
SolutionMethod    	 diagon
OccupationFunction  	 FD
Spin		             non-polarized
SingleExction            T


#standard output
WriteCoorInitial         T
WriteCoorStep            T           
WriteForce               T           
WriteKpoint              T           

#optical output
WriteDM                  T
WriteCoorXmol            T
#WriteMDhistory                        F            # .false.
#WriteCoorCerius                      T              # .false.
#WriteMDXmol                           T              # .false.
#WriteDM.NetCDF          T             # .ture.
#SaveHS                  T            # .false.
#%block ProjectedDensityOfStates
#-20.00 10.00 0.200 500 eV
#%endblock ProjectedDensityOfStates
#%block LocalDensityOfStates
#-3.50 0.00 eV
#%endblock LocalDensityOfStates
#COOP.Write              T           # .false.
#SaveRho                 T            # .false.
#SaveDeltaRho            T            # .false.
#SaveElectrostaticPotential    T      # .false.
#SaveNeutralAtomPotential      T      # .false.
#SaveTotalPotential            T      # .false.
#SaveIonicCharge               T      # .false.
#SaveTotalCharge               T      # .false.
#WriteDenchar                  T      # .false.

#NectCDF
#WriteDM.NetCDF                T
#WriteDMHS.NetCDF              T
#Use.New.Diagk                 T

# Restart
#DM.UseSaveDM                          T              # .false.
#MD.UseSaveXV                          T              # .false.
#MD.UseSaveCG                          T              # .false.

#kgrid_cutoff              [6,1,1,1]    # 0.0 Bohr
#%block GridCellSampling
#0.5 0.5 0.0
#0.5 0.0 0.5
#0.0 0.5 0.5
#%endblock GridCellSampling
#FilterCutoff             200 Ry             
# it should be similar or lower than the meshcuoff to avoid
# the eggbox effect on the atomic forces.
#----------------------------------------------------------------#

#------------------ Some Important parameters--------------------#
DM.MixingWeight             0.04    
DM.NumberPulay              4    
MeshCutoff                  600 Ry
%block kgrid_Monkhorst_Pack
5 0 0 0.0
0 5 0 0.0
0 0 1 0.0
%endblock kgrid_Monkhorst_Pack
#----------------------------------------------------------------#

#----------------------Band structure ---------------------------#
#BandLinesScale    ReciprocalLatticeVectors
#%block BandLines
#1   0.00       0.00      0.00   \Gamma
#51  0.50       0.00      0.00   M
#51  0.333333   0.333333  0.00   K
#51  0.00       0.00      0.00   \Gamma
#%endblock BandLines
#----------------------------------------------------------------#

#------------------Control Iteration Parameters------------------#
MaxSCFIterations              100            
DM.Tolerance                  1.d-5         
SCFMustConverge               .false.
DM.Energy.Tolerance           1.d-4 eV
DM.Require.Energy.Convergence   T
DM.Harris.Tolerance           1.d-5 eV
DM.Require.Harris.Convergence   T

#MD.NumCGsteps                 40           
#MD.MaxForceTol                0.02 ev/Ang  
#MD.TargetPressure             0.0 GPa
#MD.MaxStressTol               1.0 GPa
#----------------------------------------------------------------#
