#------------------ General system descriptors --------------#
SystemName        twist2930
SystemLabel       twist2930

NumberOfSpecies   3
NumberOfAtoms     15666

%block ChemicalSpeciesLabel
	1	42	Mo
	2	34	Se
	3	16	S
%endblock ChemicalSpeciesLabel

LatticeConstant        1.0 Ang
%block LatticeVectors
	142.0808	83.88940	0.000000
	-143.6907	81.10080	0.000000
	0.000000	0.000000	30.63480
%endblock LatticeVectors

AtomicCoordinatesFormat  Ang

%block AtomicCoordinatesAndAtomicSpecies
	-142.08076	82.02529	11.67697	1
	-138.85165	82.02529	11.67697	1
	-137.23709	84.82160	11.67697	1
	-137.23709	79.22897	11.67697	1
	-135.62254	82.02529	11.67697	1
	-134.00799	84.82160	11.67697	1
	-132.39343	87.61791	11.67697	1
	-134.00799	79.22897	11.67697	1
	-132.39343	82.02529	11.67697	1
	-130.77888	84.82160	11.67697	1
	-129.16432	87.61791	11.67697	1
	-127.54977	90.41423	11.67697	1
	-132.39343	76.43266	11.67697	1
	-130.77888	79.22897	11.67697	1
	-129.16432	82.02529	11.67697	1
	-127.54977	84.82160	11.67697	1
	-125.93522	87.61791	11.67697	1
	-124.32066	90.41423	11.67697	1
	-122.70611	93.21054	11.67697	1
	-129.16432	76.43266	11.67697	1
	-127.54977	79.22897	11.67697	1
	-125.93522	82.02529	11.67697	1
	-124.32066	84.82160	11.67697	1
	-122.70611	87.61791	11.67697	1
	-121.09155	90.41423	11.67697	1
	-119.477	93.21054	11.67697	1
	-117.86244	96.00685	11.67697	1
	-127.54977	73.63635	11.67697	1
	-125.93522	76.43266	11.67697	1
	-124.32066	79.22897	11.67697	1
	-122.70611	82.02529	11.67697	1
	-121.09155	84.82160	11.67697	1
	-119.477	87.61791	11.67697	1
	-117.86244	90.41423	11.67697	1
	-116.24789	93.21054	11.67697	1
	-114.63334	96.00685	11.67697	1
	-113.01878	98.80317	11.67697	1
	-124.32066	73.63635	11.67697	1
	-122.70611	76.43266	11.67697	1
	-121.09155	79.22897	11.67697	1
	-119.477	82.02529	11.67697	1
	-117.86244	84.82160	11.67697	1
	-116.24789	87.61791	11.67697	1
	-114.63334	90.41423	11.67697	1
	-113.01878	93.21054	11.67697	1
	-111.40423	96.00685	11.67697	1
	-109.78967	98.80317	11.67697	1
	-108.17512	101.59948	11.67697	1
	-122.70611	70.84003	11.67697	1
	-121.09155	73.63635	11.67697	1
	-119.477	76.43266	11.67697	1
	-117.86244	79.22897	11.67697	1
	-116.24789	82.02529	11.67697	1
	-114.63334	84.82160	11.67697	1
	-113.01878	87.61791	11.67697	1
	-111.40423	90.41423	11.67697	1
	-109.78967	93.21054	11.67697	1
	-108.17512	96.00685	11.67697	1
	-106.56057	98.80317	11.67697	1
	-104.94601	101.59948	11.67697	1
	-103.33146	104.39579	11.67697	1
	-119.477	70.84003	11.67697	1
	-117.86244	73.63635	11.67697	1
	-116.24789	76.43266	11.67697	1
	-114.63334	79.22897	11.67697	1
	-113.01878	82.02529	11.67697	1
	-111.40423	84.82160	11.67697	1
	-109.78967	87.61791	11.67697	1
	-108.17512	90.41423	11.67697	1
	-106.56057	93.21054	11.67697	1
	-104.94601	96.00685	11.67697	1
	-103.33146	98.80317	11.67697	1
	-101.7169	101.59948	11.67697	1
	-100.10235	104.39579	11.67697	1
	-98.4878	107.19211	11.67697	1
	-117.86244	68.04372	11.67697	1
	-116.24789	70.84003	11.67697	1
	-114.63334	73.63635	11.67697	1
	-113.01878	76.43266	11.67697	1
	-111.40423	79.22897	11.67697	1
	-109.78967	82.02529	11.67697	1
	-108.17512	84.82160	11.67697	1
	-106.56057	87.61791	11.67697	1
	-104.94601	90.41423	11.67697	1
	-103.33146	93.21054	11.67697	1
	-101.7169	96.00685	11.67697	1
	-100.10235	98.80317	11.67697	1
	-98.4878	101.59948	11.67697	1
	-96.87324	104.39579	11.67697	1
	-95.25869	107.19211	11.67697	1
	-93.64413	109.98842	11.67697	1
	-114.63334	68.04372	11.67697	1
	-113.01878	70.84003	11.67697	1
	-111.40423	73.63635	11.67697	1
	-109.78967	76.43266	11.67697	1
	-108.17512	79.22897	11.67697	1
	-106.56057	82.02529	11.67697	1
	-104.94601	84.82160	11.67697	1
	-103.33146	87.61791	11.67697	1
	-101.7169	90.41423	11.67697	1
	-100.10235	93.21054	11.67697	1
	-98.4878	96.00685	11.67697	1
	-96.87324	98.80317	11.67697	1
	-95.25869	101.59948	11.67697	1
	-93.64413	104.39579	11.67697	1
	-92.02958	107.19211	11.67697	1
	-90.41503	109.98842	11.67697	1
	-88.80047	112.78473	11.67697	1
	-113.01878	65.24741	11.67697	1
	-111.40423	68.04372	11.67697	1
	-109.78967	70.84003	11.67697	1
	-108.17512	73.63635	11.67697	1
	-106.56057	76.43266	11.67697	1
	-104.94601	79.22897	11.67697	1
	-103.33146	82.02529	11.67697	1
	-101.7169	84.82160	11.67697	1
	-100.10235	87.61791	11.67697	1
	-98.4878	90.41423	11.67697	1
	-96.87324	93.21054	11.67697	1
	-95.25869	96.00685	11.67697	1
	-93.64413	98.80317	11.67697	1
	-92.02958	101.59948	11.67697	1
	-90.41503	104.39579	11.67697	1
	-88.80047	107.19211	11.67697	1
	-87.18592	109.98842	11.67697	1
	-85.57136	112.78473	11.67697	1
	-83.95681	115.58105	11.67697	1
	-109.78967	65.24741	11.67697	1
	-108.17512	68.04372	11.67697	1
	-106.56057	70.84003	11.67697	1
	-104.94601	73.63635	11.67697	1
	-103.33146	76.43266	11.67697	1
	-101.7169	79.22897	11.67697	1
	-100.10235	82.02529	11.67697	1
	-98.4878	84.82160	11.67697	1
	-96.87324	87.61791	11.67697	1
	-95.25869	90.41423	11.67697	1
	-93.64413	93.21054	11.67697	1
	-92.02958	96.00685	11.67697	1
	-90.41503	98.80317	11.67697	1
	-88.80047	101.59948	11.67697	1
	-87.18592	104.39579	11.67697	1
	-85.57136	107.19211	11.67697	1
	-83.95681	109.98842	11.67697	1
	-82.34226	112.78473	11.67697	1
	-80.7277	115.58105	11.67697	1
	-79.11315	118.37736	11.67697	1
	-108.17512	62.45109	11.67697	1
	-106.56057	65.24741	11.67697	1
	-104.94601	68.04372	11.67697	1
	-103.33146	70.84003	11.67697	1
	-101.7169	73.63635	11.67697	1
	-100.10235	76.43266	11.67697	1
	-98.4878	79.22897	11.67697	1
	-96.87324	82.02529	11.67697	1
	-95.25869	84.82160	11.67697	1
	-93.64413	87.61791	11.67697	1
	-92.02958	90.41423	11.67697	1
	-90.41503	93.21054	11.67697	1
	-88.80047	96.00685	11.67697	1
	-87.18592	98.80317	11.67697	1
	-85.57136	101.59948	11.67697	1
	-83.95681	104.39579	11.67697	1
	-82.34226	107.19211	11.67697	1
	-80.7277	109.98842	11.67697	1
	-79.11315	112.78473	11.67697	1
	-77.49859	115.58105	11.67697	1
	-75.88404	118.37736	11.67697	1
	-74.26949	121.17367	11.67697	1
	-104.94601	62.45109	11.67697	1
	-103.33146	65.24741	11.67697	1
	-101.7169	68.04372	11.67697	1
	-100.10235	70.84003	11.67697	1
	-98.4878	73.63635	11.67697	1
	-96.87324	76.43266	11.67697	1
	-95.25869	79.22897	11.67697	1
	-93.64413	82.02529	11.67697	1
	-92.02958	84.82160	11.67697	1
	-90.41503	87.61791	11.67697	1
	-88.80047	90.41423	11.67697	1
	-87.18592	93.21054	11.67697	1
	-85.57136	96.00685	11.67697	1
	-83.95681	98.80317	11.67697	1
	-82.34226	101.59948	11.67697	1
	-80.7277	104.39579	11.67697	1
	-79.11315	107.19211	11.67697	1
	-77.49859	109.98842	11.67697	1
	-75.88404	112.78473	11.67697	1
	-74.26949	115.58105	11.67697	1
	-72.65493	118.37736	11.67697	1
	-71.04038	121.17367	11.67697	1
	-69.42582	123.96999	11.67697	1
	-103.33146	59.65478	11.67697	1
	-101.7169	62.45109	11.67697	1
	-100.10235	65.24741	11.67697	1
	-98.4878	68.04372	11.67697	1
	-96.87324	70.84003	11.67697	1
	-95.25869	73.63635	11.67697	1
	-93.64413	76.43266	11.67697	1
	-92.02958	79.22897	11.67697	1
	-90.41503	82.02529	11.67697	1
	-88.80047	84.82160	11.67697	1
	-87.18592	87.61791	11.67697	1
	-85.57136	90.41423	11.67697	1
	-83.95681	93.21054	11.67697	1
	-82.34226	96.00685	11.67697	1
	-80.7277	98.80317	11.67697	1
	-79.11315	101.59948	11.67697	1
	-77.49859	104.39579	11.67697	1
	-75.88404	107.19211	11.67697	1
	-74.26949	109.98842	11.67697	1
	-72.65493	112.78473	11.67697	1
	-71.04038	115.58105	11.67697	1
	-69.42582	118.37736	11.67697	1
	-67.81127	121.17367	11.67697	1
	-66.19672	123.96999	11.67697	1
	-64.58216	126.7663	11.67697	1
	-100.10235	59.65478	11.67697	1
	-98.4878	62.45109	11.67697	1
	-96.87324	65.24741	11.67697	1
	-95.25869	68.04372	11.67697	1
	-93.64413	70.84003	11.67697	1
	-92.02958	73.63635	11.67697	1
	-90.41503	76.43266	11.67697	1
	-88.80047	79.22897	11.67697	1
	-87.18592	82.02529	11.67697	1
	-85.57136	84.82160	11.67697	1
	-83.95681	87.61791	11.67697	1
	-82.34226	90.41423	11.67697	1
	-80.7277	93.21054	11.67697	1
	-79.11315	96.00685	11.67697	1
	-77.49859	98.80317	11.67697	1
	-75.88404	101.59948	11.67697	1
	-74.26949	104.39579	11.67697	1
	-72.65493	107.19211	11.67697	1
	-71.04038	109.98842	11.67697	1
	-69.42582	112.78473	11.67697	1
	-67.81127	115.58105	11.67697	1
	-66.19672	118.37736	11.67697	1
	-64.58216	121.17367	11.67697	1
	-62.96761	123.96999	11.67697	1
	-61.35305	126.7663	11.67697	1
	-59.7385	129.56261	11.67697	1
	-98.4878	56.85847	11.67697	1
	-96.87324	59.65478	11.67697	1
	-95.25869	62.45109	11.67697	1
	-93.64413	65.24741	11.67697	1
	-92.02958	68.04372	11.67697	1
	-90.41503	70.84003	11.67697	1
	-88.80047	73.63635	11.67697	1
	-87.18592	76.43266	11.67697	1
	-85.57136	79.22897	11.67697	1
	-83.95681	82.02529	11.67697	1
	-82.34226	84.82160	11.67697	1
	-80.7277	87.61791	11.67697	1
	-79.11315	90.41423	11.67697	1
	-77.49859	93.21054	11.67697	1
	-75.88404	96.00685	11.67697	1
	-74.26949	98.80317	11.67697	1
	-72.65493	101.59948	11.67697	1
	-71.04038	104.39579	11.67697	1
	-69.42582	107.19211	11.67697	1
	-67.81127	109.98842	11.67697	1
	-66.19672	112.78473	11.67697	1
	-64.58216	115.58105	11.67697	1
	-62.96761	118.37736	11.67697	1
	-61.35305	121.17367	11.67697	1
	-59.7385	123.96999	11.67697	1
	-58.12395	126.7663	11.67697	1
	-56.50939	129.56261	11.67697	1
	-54.89484	132.35893	11.67697	1
	-95.25869	56.85847	11.67697	1
	-93.64413	59.65478	11.67697	1
	-92.02958	62.45109	11.67697	1
	-90.41503	65.24741	11.67697	1
	-88.80047	68.04372	11.67697	1
	-87.18592	70.84003	11.67697	1
	-85.57136	73.63635	11.67697	1
	-83.95681	76.43266	11.67697	1
	-82.34226	79.22897	11.67697	1
	-80.7277	82.02529	11.67697	1
	-79.11315	84.82160	11.67697	1
	-77.49859	87.61791	11.67697	1
	-75.88404	90.41423	11.67697	1
	-74.26949	93.21054	11.67697	1
	-72.65493	96.00685	11.67697	1
	-71.04038	98.80317	11.67697	1
	-69.42582	101.59948	11.67697	1
	-67.81127	104.39579	11.67697	1
	-66.19672	107.19211	11.67697	1
	-64.58216	109.98842	11.67697	1
	-62.96761	112.78473	11.67697	1
	-61.35305	115.58105	11.67697	1
	-59.7385	118.37736	11.67697	1
	-58.12395	121.17367	11.67697	1
	-56.50939	123.96999	11.67697	1
	-54.89484	126.7663	11.67697	1
	-53.28028	129.56261	11.67697	1
	-51.66573	132.35893	11.67697	1
	-50.05118	135.15524	11.67697	1
	-93.64413	54.06216	11.67697	1
	-92.02958	56.85847	11.67697	1
	-90.41503	59.65478	11.67697	1
	-88.80047	62.45109	11.67697	1
	-87.18592	65.24741	11.67697	1
	-85.57136	68.04372	11.67697	1
	-83.95681	70.84003	11.67697	1
	-82.34226	73.63635	11.67697	1
	-80.7277	76.43266	11.67697	1
	-79.11315	79.22897	11.67697	1
	-77.49859	82.02529	11.67697	1
	-75.88404	84.82160	11.67697	1
	-74.26949	87.61791	11.67697	1
	-72.65493	90.41423	11.67697	1
	-71.04038	93.21054	11.67697	1
	-69.42582	96.00685	11.67697	1
	-67.81127	98.80317	11.67697	1
	-66.19672	101.59948	11.67697	1
	-64.58216	104.39579	11.67697	1
	-62.96761	107.19211	11.67697	1
	-61.35305	109.98842	11.67697	1
	-59.7385	112.78473	11.67697	1
	-58.12395	115.58105	11.67697	1
	-56.50939	118.37736	11.67697	1
	-54.89484	121.17367	11.67697	1
	-53.28028	123.96999	11.67697	1
	-51.66573	126.7663	11.67697	1
	-50.05118	129.56261	11.67697	1
	-48.43662	132.35893	11.67697	1
	-46.82207	135.15524	11.67697	1
	-45.20751	137.95155	11.67697	1
	-90.41503	54.06216	11.67697	1
	-88.80047	56.85847	11.67697	1
	-87.18592	59.65478	11.67697	1
	-85.57136	62.45109	11.67697	1
	-83.95681	65.24741	11.67697	1
	-82.34226	68.04372	11.67697	1
	-80.7277	70.84003	11.67697	1
	-79.11315	73.63635	11.67697	1
	-77.49859	76.43266	11.67697	1
	-75.88404	79.22897	11.67697	1
	-74.26949	82.02529	11.67697	1
	-72.65493	84.82160	11.67697	1
	-71.04038	87.61791	11.67697	1
	-69.42582	90.41423	11.67697	1
	-67.81127	93.21054	11.67697	1
	-66.19672	96.00685	11.67697	1
	-64.58216	98.80317	11.67697	1
	-62.96761	101.59948	11.67697	1
	-61.35305	104.39579	11.67697	1
	-59.7385	107.19211	11.67697	1
	-58.12395	109.98842	11.67697	1
	-56.50939	112.78473	11.67697	1
	-54.89484	115.58105	11.67697	1
	-53.28028	118.37736	11.67697	1
	-51.66573	121.17367	11.67697	1
	-50.05118	123.96999	11.67697	1
	-48.43662	126.7663	11.67697	1
	-46.82207	129.56261	11.67697	1
	-45.20751	132.35893	11.67697	1
	-43.59296	135.15524	11.67697	1
	-41.97841	137.95155	11.67697	1
	-40.36385	140.74787	11.67697	1
	-88.80047	51.26584	11.67697	1
	-87.18592	54.06216	11.67697	1
	-85.57136	56.85847	11.67697	1
	-83.95681	59.65478	11.67697	1
	-82.34226	62.45109	11.67697	1
	-80.7277	65.24741	11.67697	1
	-79.11315	68.04372	11.67697	1
	-77.49859	70.84003	11.67697	1
	-75.88404	73.63635	11.67697	1
	-74.26949	76.43266	11.67697	1
	-72.65493	79.22897	11.67697	1
	-71.04038	82.02529	11.67697	1
	-69.42582	84.82160	11.67697	1
	-67.81127	87.61791	11.67697	1
	-66.19672	90.41423	11.67697	1
	-64.58216	93.21054	11.67697	1
	-62.96761	96.00685	11.67697	1
	-61.35305	98.80317	11.67697	1
	-59.7385	101.59948	11.67697	1
	-58.12395	104.39579	11.67697	1
	-56.50939	107.19211	11.67697	1
	-54.89484	109.98842	11.67697	1
	-53.28028	112.78473	11.67697	1
	-51.66573	115.58105	11.67697	1
	-50.05118	118.37736	11.67697	1
	-48.43662	121.17367	11.67697	1
	-46.82207	123.96999	11.67697	1
	-45.20751	126.7663	11.67697	1
	-43.59296	129.56261	11.67697	1
	-41.97841	132.35893	11.67697	1
	-40.36385	135.15524	11.67697	1
	-38.7493	137.95155	11.67697	1
	-37.13474	140.74787	11.67697	1
	-35.52019	143.54418	11.67697	1
	-85.57136	51.26584	11.67697	1
	-83.95681	54.06216	11.67697	1
	-82.34226	56.85847	11.67697	1
	-80.7277	59.65478	11.67697	1
	-79.11315	62.45109	11.67697	1
	-77.49859	65.24741	11.67697	1
	-75.88404	68.04372	11.67697	1
	-74.26949	70.84003	11.67697	1
	-72.65493	73.63635	11.67697	1
	-71.04038	76.43266	11.67697	1
	-69.42582	79.22897	11.67697	1
	-67.81127	82.02529	11.67697	1
	-66.19672	84.82160	11.67697	1
	-64.58216	87.61791	11.67697	1
	-62.96761	90.41423	11.67697	1
	-61.35305	93.21054	11.67697	1
	-59.7385	96.00685	11.67697	1
	-58.12395	98.80317	11.67697	1
	-56.50939	101.59948	11.67697	1
	-54.89484	104.39579	11.67697	1
	-53.28028	107.19211	11.67697	1
	-51.66573	109.98842	11.67697	1
	-50.05118	112.78473	11.67697	1
	-48.43662	115.58105	11.67697	1
	-46.82207	118.37736	11.67697	1
	-45.20751	121.17367	11.67697	1
	-43.59296	123.96999	11.67697	1
	-41.97841	126.7663	11.67697	1
	-40.36385	129.56261	11.67697	1
	-38.7493	132.35893	11.67697	1
	-37.13474	135.15524	11.67697	1
	-35.52019	137.95155	11.67697	1
	-33.90563	140.74787	11.67697	1
	-32.29108	143.54418	11.67697	1
	-30.67653	146.34049	11.67697	1
	-83.95681	48.46953	11.67697	1
	-82.34226	51.26584	11.67697	1
	-80.7277	54.06216	11.67697	1
	-79.11315	56.85847	11.67697	1
	-77.49859	59.65478	11.67697	1
	-75.88404	62.45109	11.67697	1
	-74.26949	65.24741	11.67697	1
	-72.65493	68.04372	11.67697	1
	-71.04038	70.84003	11.67697	1
	-69.42582	73.63635	11.67697	1
	-67.81127	76.43266	11.67697	1
	-66.19672	79.22897	11.67697	1
	-64.58216	82.02529	11.67697	1
	-62.96761	84.82160	11.67697	1
	-61.35305	87.61791	11.67697	1
	-59.7385	90.41423	11.67697	1
	-58.12395	93.21054	11.67697	1
	-56.50939	96.00685	11.67697	1
	-54.89484	98.80317	11.67697	1
	-53.28028	101.59948	11.67697	1
	-51.66573	104.39579	11.67697	1
	-50.05118	107.19211	11.67697	1
	-48.43662	109.98842	11.67697	1
	-46.82207	112.78473	11.67697	1
	-45.20751	115.58105	11.67697	1
	-43.59296	118.37736	11.67697	1
	-41.97841	121.17367	11.67697	1
	-40.36385	123.96999	11.67697	1
	-38.7493	126.7663	11.67697	1
	-37.13474	129.56261	11.67697	1
	-35.52019	132.35893	11.67697	1
	-33.90563	135.15524	11.67697	1
	-32.29108	137.95155	11.67697	1
	-30.67653	140.74787	11.67697	1
	-29.06197	143.54418	11.67697	1
	-27.44742	146.34049	11.67697	1
	-25.83286	149.13681	11.67697	1
	-80.7277	48.46953	11.67697	1
	-79.11315	51.26584	11.67697	1
	-77.49859	54.06216	11.67697	1
	-75.88404	56.85847	11.67697	1
	-74.26949	59.65478	11.67697	1
	-72.65493	62.45109	11.67697	1
	-71.04038	65.24741	11.67697	1
	-69.42582	68.04372	11.67697	1
	-67.81127	70.84003	11.67697	1
	-66.19672	73.63635	11.67697	1
	-64.58216	76.43266	11.67697	1
	-62.96761	79.22897	11.67697	1
	-61.35305	82.02529	11.67697	1
	-59.7385	84.82160	11.67697	1
	-58.12395	87.61791	11.67697	1
	-56.50939	90.41423	11.67697	1
	-54.89484	93.21054	11.67697	1
	-53.28028	96.00685	11.67697	1
	-51.66573	98.80317	11.67697	1
	-50.05118	101.59948	11.67697	1
	-48.43662	104.39579	11.67697	1
	-46.82207	107.19211	11.67697	1
	-45.20751	109.98842	11.67697	1
	-43.59296	112.78473	11.67697	1
	-41.97841	115.58105	11.67697	1
	-40.36385	118.37736	11.67697	1
	-38.7493	121.17367	11.67697	1
	-37.13474	123.96999	11.67697	1
	-35.52019	126.7663	11.67697	1
	-33.90563	129.56261	11.67697	1
	-32.29108	132.35893	11.67697	1
	-30.67653	135.15524	11.67697	1
	-29.06197	137.95155	11.67697	1
	-27.44742	140.74787	11.67697	1
	-25.83286	143.54418	11.67697	1
	-24.21831	146.34049	11.67697	1
	-22.60376	149.13681	11.67697	1
	-20.9892	151.93312	11.67697	1
	-79.11315	45.67322	11.67697	1
	-77.49859	48.46953	11.67697	1
	-75.88404	51.26584	11.67697	1
	-74.26949	54.06216	11.67697	1
	-72.65493	56.85847	11.67697	1
	-71.04038	59.65478	11.67697	1
	-69.42582	62.45109	11.67697	1
	-67.81127	65.24741	11.67697	1
	-66.19672	68.04372	11.67697	1
	-64.58216	70.84003	11.67697	1
	-62.96761	73.63635	11.67697	1
	-61.35305	76.43266	11.67697	1
	-59.7385	79.22897	11.67697	1
	-58.12395	82.02529	11.67697	1
	-56.50939	84.82160	11.67697	1
	-54.89484	87.61791	11.67697	1
	-53.28028	90.41423	11.67697	1
	-51.66573	93.21054	11.67697	1
	-50.05118	96.00685	11.67697	1
	-48.43662	98.80317	11.67697	1
	-46.82207	101.59948	11.67697	1
	-45.20751	104.39579	11.67697	1
	-43.59296	107.19211	11.67697	1
	-41.97841	109.98842	11.67697	1
	-40.36385	112.78473	11.67697	1
	-38.7493	115.58105	11.67697	1
	-37.13474	118.37736	11.67697	1
	-35.52019	121.17367	11.67697	1
	-33.90563	123.96999	11.67697	1
	-32.29108	126.7663	11.67697	1
	-30.67653	129.56261	11.67697	1
	-29.06197	132.35893	11.67697	1
	-27.44742	135.15524	11.67697	1
	-25.83286	137.95155	11.67697	1
	-24.21831	140.74787	11.67697	1
	-22.60376	143.54418	11.67697	1
	-20.9892	146.34049	11.67697	1
	-19.37465	149.13681	11.67697	1
	-17.76009	151.93312	11.67697	1
	-16.14554	154.72943	11.67697	1
	-75.88404	45.67322	11.67697	1
	-74.26949	48.46953	11.67697	1
	-72.65493	51.26584	11.67697	1
	-71.04038	54.06216	11.67697	1
	-69.42582	56.85847	11.67697	1
	-67.81127	59.65478	11.67697	1
	-66.19672	62.45109	11.67697	1
	-64.58216	65.24741	11.67697	1
	-62.96761	68.04372	11.67697	1
	-61.35305	70.84003	11.67697	1
	-59.7385	73.63635	11.67697	1
	-58.12395	76.43266	11.67697	1
	-56.50939	79.22897	11.67697	1
	-54.89484	82.02529	11.67697	1
	-53.28028	84.82160	11.67697	1
	-51.66573	87.61791	11.67697	1
	-50.05118	90.41423	11.67697	1
	-48.43662	93.21054	11.67697	1
	-46.82207	96.00685	11.67697	1
	-45.20751	98.80317	11.67697	1
	-43.59296	101.59948	11.67697	1
	-41.97841	104.39579	11.67697	1
	-40.36385	107.19211	11.67697	1
	-38.7493	109.98842	11.67697	1
	-37.13474	112.78473	11.67697	1
	-35.52019	115.58105	11.67697	1
	-33.90563	118.37736	11.67697	1
	-32.29108	121.17367	11.67697	1
	-30.67653	123.96999	11.67697	1
	-29.06197	126.7663	11.67697	1
	-27.44742	129.56261	11.67697	1
	-25.83286	132.35893	11.67697	1
	-24.21831	135.15524	11.67697	1
	-22.60376	137.95155	11.67697	1
	-20.9892	140.74787	11.67697	1
	-19.37465	143.54418	11.67697	1
	-17.76009	146.34049	11.67697	1
	-16.14554	149.13681	11.67697	1
	-14.53099	151.93312	11.67697	1
	-12.91643	154.72943	11.67697	1
	-11.30188	157.52575	11.67697	1
	-74.26949	42.87690	11.67697	1
	-72.65493	45.67322	11.67697	1
	-71.04038	48.46953	11.67697	1
	-69.42582	51.26584	11.67697	1
	-67.81127	54.06216	11.67697	1
	-66.19672	56.85847	11.67697	1
	-64.58216	59.65478	11.67697	1
	-62.96761	62.45109	11.67697	1
	-61.35305	65.24741	11.67697	1
	-59.7385	68.04372	11.67697	1
	-58.12395	70.84003	11.67697	1
	-56.50939	73.63635	11.67697	1
	-54.89484	76.43266	11.67697	1
	-53.28028	79.22897	11.67697	1
	-51.66573	82.02529	11.67697	1
	-50.05118	84.82160	11.67697	1
	-48.43662	87.61791	11.67697	1
	-46.82207	90.41423	11.67697	1
	-45.20751	93.21054	11.67697	1
	-43.59296	96.00685	11.67697	1
	-41.97841	98.80317	11.67697	1
	-40.36385	101.59948	11.67697	1
	-38.7493	104.39579	11.67697	1
	-37.13474	107.19211	11.67697	1
	-35.52019	109.98842	11.67697	1
	-33.90563	112.78473	11.67697	1
	-32.29108	115.58105	11.67697	1
	-30.67653	118.37736	11.67697	1
	-29.06197	121.17367	11.67697	1
	-27.44742	123.96999	11.67697	1
	-25.83286	126.7663	11.67697	1
	-24.21831	129.56261	11.67697	1
	-22.60376	132.35893	11.67697	1
	-20.9892	135.15524	11.67697	1
	-19.37465	137.95155	11.67697	1
	-17.76009	140.74787	11.67697	1
	-16.14554	143.54418	11.67697	1
	-14.53099	146.34049	11.67697	1
	-12.91643	149.13681	11.67697	1
	-11.30188	151.93312	11.67697	1
	-9.68732	154.72943	11.67697	1
	-8.07277	157.52575	11.67697	1
	-6.45822	160.32206	11.67697	1
	-71.04038	42.87690	11.67697	1
	-69.42582	45.67322	11.67697	1
	-67.81127	48.46953	11.67697	1
	-66.19672	51.26584	11.67697	1
	-64.58216	54.06216	11.67697	1
	-62.96761	56.85847	11.67697	1
	-61.35305	59.65478	11.67697	1
	-59.7385	62.45109	11.67697	1
	-58.12395	65.24741	11.67697	1
	-56.50939	68.04372	11.67697	1
	-54.89484	70.84003	11.67697	1
	-53.28028	73.63635	11.67697	1
	-51.66573	76.43266	11.67697	1
	-50.05118	79.22897	11.67697	1
	-48.43662	82.02529	11.67697	1
	-46.82207	84.82160	11.67697	1
	-45.20751	87.61791	11.67697	1
	-43.59296	90.41423	11.67697	1
	-41.97841	93.21054	11.67697	1
	-40.36385	96.00685	11.67697	1
	-38.7493	98.80317	11.67697	1
	-37.13474	101.59948	11.67697	1
	-35.52019	104.39579	11.67697	1
	-33.90563	107.19211	11.67697	1
	-32.29108	109.98842	11.67697	1
	-30.67653	112.78473	11.67697	1
	-29.06197	115.58105	11.67697	1
	-27.44742	118.37736	11.67697	1
	-25.83286	121.17367	11.67697	1
	-24.21831	123.96999	11.67697	1
	-22.60376	126.7663	11.67697	1
	-20.9892	129.56261	11.67697	1
	-19.37465	132.35893	11.67697	1
	-17.76009	135.15524	11.67697	1
	-16.14554	137.95155	11.67697	1
	-14.53099	140.74787	11.67697	1
	-12.91643	143.54418	11.67697	1
	-11.30188	146.34049	11.67697	1
	-9.68732	149.13681	11.67697	1
	-8.07277	151.93312	11.67697	1
	-6.45822	154.72943	11.67697	1
	-4.84366	157.52575	11.67697	1
	-3.22911	160.32206	11.67697	1
	-1.61455	163.11837	11.67697	1
	-69.42582	40.08059	11.67697	1
	-67.81127	42.87690	11.67697	1
	-66.19672	45.67322	11.67697	1
	-64.58216	48.46953	11.67697	1
	-62.96761	51.26584	11.67697	1
	-61.35305	54.06216	11.67697	1
	-59.7385	56.85847	11.67697	1
	-58.12395	59.65478	11.67697	1
	-56.50939	62.45109	11.67697	1
	-54.89484	65.24741	11.67697	1
	-53.28028	68.04372	11.67697	1
	-51.66573	70.84003	11.67697	1
	-50.05118	73.63635	11.67697	1
	-48.43662	76.43266	11.67697	1
	-46.82207	79.22897	11.67697	1
	-45.20751	82.02529	11.67697	1
	-43.59296	84.82160	11.67697	1
	-41.97841	87.61791	11.67697	1
	-40.36385	90.41423	11.67697	1
	-38.7493	93.21054	11.67697	1
	-37.13474	96.00685	11.67697	1
	-35.52019	98.80317	11.67697	1
	-33.90563	101.59948	11.67697	1
	-32.29108	104.39579	11.67697	1
	-30.67653	107.19211	11.67697	1
	-29.06197	109.98842	11.67697	1
	-27.44742	112.78473	11.67697	1
	-25.83286	115.58105	11.67697	1
	-24.21831	118.37736	11.67697	1
	-22.60376	121.17367	11.67697	1
	-20.9892	123.96999	11.67697	1
	-19.37465	126.7663	11.67697	1
	-17.76009	129.56261	11.67697	1
	-16.14554	132.35893	11.67697	1
	-14.53099	135.15524	11.67697	1
	-12.91643	137.95155	11.67697	1
	-11.30188	140.74787	11.67697	1
	-9.68732	143.54418	11.67697	1
	-8.07277	146.34049	11.67697	1
	-6.45822	149.13681	11.67697	1
	-4.84366	151.93312	11.67697	1
	-3.22911	154.72943	11.67697	1
	-1.61455	157.52575	11.67697	1
	0.000000	160.32206	11.67697	1
	1.614550	163.11837	11.67697	1
	-66.19672	40.08059	11.67697	1
	-64.58216	42.87690	11.67697	1
	-62.96761	45.67322	11.67697	1
	-61.35305	48.46953	11.67697	1
	-59.7385	51.26584	11.67697	1
	-58.12395	54.06216	11.67697	1
	-56.50939	56.85847	11.67697	1
	-54.89484	59.65478	11.67697	1
	-53.28028	62.45109	11.67697	1
	-51.66573	65.24741	11.67697	1
	-50.05118	68.04372	11.67697	1
	-48.43662	70.84003	11.67697	1
	-46.82207	73.63635	11.67697	1
	-45.20751	76.43266	11.67697	1
	-43.59296	79.22897	11.67697	1
	-41.97841	82.02529	11.67697	1
	-40.36385	84.82160	11.67697	1
	-38.7493	87.61791	11.67697	1
	-37.13474	90.41423	11.67697	1
	-35.52019	93.21054	11.67697	1
	-33.90563	96.00685	11.67697	1
	-32.29108	98.80317	11.67697	1
	-30.67653	101.59948	11.67697	1
	-29.06197	104.39579	11.67697	1
	-27.44742	107.19211	11.67697	1
	-25.83286	109.98842	11.67697	1
	-24.21831	112.78473	11.67697	1
	-22.60376	115.58105	11.67697	1
	-20.9892	118.37736	11.67697	1
	-19.37465	121.17367	11.67697	1
	-17.76009	123.96999	11.67697	1
	-16.14554	126.7663	11.67697	1
	-14.53099	129.56261	11.67697	1
	-12.91643	132.35893	11.67697	1
	-11.30188	135.15524	11.67697	1
	-9.68732	137.95155	11.67697	1
	-8.07277	140.74787	11.67697	1
	-6.45822	143.54418	11.67697	1
	-4.84366	146.34049	11.67697	1
	-3.22911	149.13681	11.67697	1
	-1.61455	151.93312	11.67697	1
	0.000000	154.72943	11.67697	1
	1.614550	157.52575	11.67697	1
	3.229110	160.32206	11.67697	1
	-64.58216	37.28428	11.67697	1
	-62.96761	40.08059	11.67697	1
	-61.35305	42.87690	11.67697	1
	-59.7385	45.67322	11.67697	1
	-58.12395	48.46953	11.67697	1
	-56.50939	51.26584	11.67697	1
	-54.89484	54.06216	11.67697	1
	-53.28028	56.85847	11.67697	1
	-51.66573	59.65478	11.67697	1
	-50.05118	62.45109	11.67697	1
	-48.43662	65.24741	11.67697	1
	-46.82207	68.04372	11.67697	1
	-45.20751	70.84003	11.67697	1
	-43.59296	73.63635	11.67697	1
	-41.97841	76.43266	11.67697	1
	-40.36385	79.22897	11.67697	1
	-38.7493	82.02529	11.67697	1
	-37.13474	84.82160	11.67697	1
	-35.52019	87.61791	11.67697	1
	-33.90563	90.41423	11.67697	1
	-32.29108	93.21054	11.67697	1
	-30.67653	96.00685	11.67697	1
	-29.06197	98.80317	11.67697	1
	-27.44742	101.59948	11.67697	1
	-25.83286	104.39579	11.67697	1
	-24.21831	107.19211	11.67697	1
	-22.60376	109.98842	11.67697	1
	-20.9892	112.78473	11.67697	1
	-19.37465	115.58105	11.67697	1
	-17.76009	118.37736	11.67697	1
	-16.14554	121.17367	11.67697	1
	-14.53099	123.96999	11.67697	1
	-12.91643	126.7663	11.67697	1
	-11.30188	129.56261	11.67697	1
	-9.68732	132.35893	11.67697	1
	-8.07277	135.15524	11.67697	1
	-6.45822	137.95155	11.67697	1
	-4.84366	140.74787	11.67697	1
	-3.22911	143.54418	11.67697	1
	-1.61455	146.34049	11.67697	1
	0.000000	149.13681	11.67697	1
	1.614550	151.93312	11.67697	1
	3.229110	154.72943	11.67697	1
	4.843660	157.52575	11.67697	1
	6.458220	160.32206	11.67697	1
	-61.35305	37.28428	11.67697	1
	-59.7385	40.08059	11.67697	1
	-58.12395	42.87690	11.67697	1
	-56.50939	45.67322	11.67697	1
	-54.89484	48.46953	11.67697	1
	-53.28028	51.26584	11.67697	1
	-51.66573	54.06216	11.67697	1
	-50.05118	56.85847	11.67697	1
	-48.43662	59.65478	11.67697	1
	-46.82207	62.45109	11.67697	1
	-45.20751	65.24741	11.67697	1
	-43.59296	68.04372	11.67697	1
	-41.97841	70.84003	11.67697	1
	-40.36385	73.63635	11.67697	1
	-38.7493	76.43266	11.67697	1
	-37.13474	79.22897	11.67697	1
	-35.52019	82.02529	11.67697	1
	-33.90563	84.82160	11.67697	1
	-32.29108	87.61791	11.67697	1
	-30.67653	90.41423	11.67697	1
	-29.06197	93.21054	11.67697	1
	-27.44742	96.00685	11.67697	1
	-25.83286	98.80317	11.67697	1
	-24.21831	101.59948	11.67697	1
	-22.60376	104.39579	11.67697	1
	-20.9892	107.19211	11.67697	1
	-19.37465	109.98842	11.67697	1
	-17.76009	112.78473	11.67697	1
	-16.14554	115.58105	11.67697	1
	-14.53099	118.37736	11.67697	1
	-12.91643	121.17367	11.67697	1
	-11.30188	123.96999	11.67697	1
	-9.68732	126.7663	11.67697	1
	-8.07277	129.56261	11.67697	1
	-6.45822	132.35893	11.67697	1
	-4.84366	135.15524	11.67697	1
	-3.22911	137.95155	11.67697	1
	-1.61455	140.74787	11.67697	1
	0.000000	143.54418	11.67697	1
	1.614550	146.34049	11.67697	1
	3.229110	149.13681	11.67697	1
	4.843660	151.93312	11.67697	1
	6.458220	154.72943	11.67697	1
	8.072770	157.52575	11.67697	1
	-59.7385	34.48796	11.67697	1
	-58.12395	37.28428	11.67697	1
	-56.50939	40.08059	11.67697	1
	-54.89484	42.87690	11.67697	1
	-53.28028	45.67322	11.67697	1
	-51.66573	48.46953	11.67697	1
	-50.05118	51.26584	11.67697	1
	-48.43662	54.06216	11.67697	1
	-46.82207	56.85847	11.67697	1
	-45.20751	59.65478	11.67697	1
	-43.59296	62.45109	11.67697	1
	-41.97841	65.24741	11.67697	1
	-40.36385	68.04372	11.67697	1
	-38.7493	70.84003	11.67697	1
	-37.13474	73.63635	11.67697	1
	-35.52019	76.43266	11.67697	1
	-33.90563	79.22897	11.67697	1
	-32.29108	82.02529	11.67697	1
	-30.67653	84.82160	11.67697	1
	-29.06197	87.61791	11.67697	1
	-27.44742	90.41423	11.67697	1
	-25.83286	93.21054	11.67697	1
	-24.21831	96.00685	11.67697	1
	-22.60376	98.80317	11.67697	1
	-20.9892	101.59948	11.67697	1
	-19.37465	104.39579	11.67697	1
	-17.76009	107.19211	11.67697	1
	-16.14554	109.98842	11.67697	1
	-14.53099	112.78473	11.67697	1
	-12.91643	115.58105	11.67697	1
	-11.30188	118.37736	11.67697	1
	-9.68732	121.17367	11.67697	1
	-8.07277	123.96999	11.67697	1
	-6.45822	126.7663	11.67697	1
	-4.84366	129.56261	11.67697	1
	-3.22911	132.35893	11.67697	1
	-1.61455	135.15524	11.67697	1
	0.000000	137.95155	11.67697	1
	1.614550	140.74787	11.67697	1
	3.229110	143.54418	11.67697	1
	4.843660	146.34049	11.67697	1
	6.458220	149.13681	11.67697	1
	8.072770	151.93312	11.67697	1
	9.687320	154.72943	11.67697	1
	11.30188	157.52575	11.67697	1
	-56.50939	34.48796	11.67697	1
	-54.89484	37.28428	11.67697	1
	-53.28028	40.08059	11.67697	1
	-51.66573	42.87690	11.67697	1
	-50.05118	45.67322	11.67697	1
	-48.43662	48.46953	11.67697	1
	-46.82207	51.26584	11.67697	1
	-45.20751	54.06216	11.67697	1
	-43.59296	56.85847	11.67697	1
	-41.97841	59.65478	11.67697	1
	-40.36385	62.45109	11.67697	1
	-38.7493	65.24741	11.67697	1
	-37.13474	68.04372	11.67697	1
	-35.52019	70.84003	11.67697	1
	-33.90563	73.63635	11.67697	1
	-32.29108	76.43266	11.67697	1
	-30.67653	79.22897	11.67697	1
	-29.06197	82.02529	11.67697	1
	-27.44742	84.82160	11.67697	1
	-25.83286	87.61791	11.67697	1
	-24.21831	90.41423	11.67697	1
	-22.60376	93.21054	11.67697	1
	-20.9892	96.00685	11.67697	1
	-19.37465	98.80317	11.67697	1
	-17.76009	101.59948	11.67697	1
	-16.14554	104.39579	11.67697	1
	-14.53099	107.19211	11.67697	1
	-12.91643	109.98842	11.67697	1
	-11.30188	112.78473	11.67697	1
	-9.68732	115.58105	11.67697	1
	-8.07277	118.37736	11.67697	1
	-6.45822	121.17367	11.67697	1
	-4.84366	123.96999	11.67697	1
	-3.22911	126.7663	11.67697	1
	-1.61455	129.56261	11.67697	1
	0.000000	132.35893	11.67697	1
	1.614550	135.15524	11.67697	1
	3.229110	137.95155	11.67697	1
	4.843660	140.74787	11.67697	1
	6.458220	143.54418	11.67697	1
	8.072770	146.34049	11.67697	1
	9.687320	149.13681	11.67697	1