#------------------ General system descriptors --------------#
SystemName        twist89
SystemLabel       twist89

NumberOfSpecies   3
NumberOfAtoms     1302

%block ChemicalSpeciesLabel
	1	42	Mo
	2	34	Se
	3	16	S
%endblock ChemicalSpeciesLabel

LatticeConstant        1.0 Ang
%block LatticeVectors
	40.36390	25.16680	0.000000
	-41.9770	22.37270	0.000000
	0.000000	0.000000	30.63480
%endblock LatticeVectors

AtomicCoordinatesFormat  Ang

%block AtomicCoordinatesAndAtomicSpecies
	-40.36385	23.30271	11.67697	1
	-37.13474	23.30271	11.67697	1
	-35.52019	26.09902	11.67697	1
	-35.52019	20.50640	11.67697	1
	-33.90563	23.30271	11.67697	1
	-32.29108	26.09902	11.67697	1
	-30.67653	28.89534	11.67697	1
	-32.29108	20.50640	11.67697	1
	-30.67653	23.30271	11.67697	1
	-29.06197	26.09902	11.67697	1
	-27.44742	28.89534	11.67697	1
	-25.83286	31.69165	11.67697	1
	-30.67653	17.71008	11.67697	1
	-29.06197	20.50640	11.67697	1
	-27.44742	23.30271	11.67697	1
	-25.83286	26.09902	11.67697	1
	-24.21831	28.89534	11.67697	1
	-22.60376	31.69165	11.67697	1
	-20.9892	34.48796	11.67697	1
	-27.44742	17.71008	11.67697	1
	-25.83286	20.50640	11.67697	1
	-24.21831	23.30271	11.67697	1
	-22.60376	26.09902	11.67697	1
	-20.9892	28.89534	11.67697	1
	-19.37465	31.69165	11.67697	1
	-17.76009	34.48796	11.67697	1
	-16.14554	37.28428	11.67697	1
	-25.83286	14.91377	11.67697	1
	-24.21831	17.71008	11.67697	1
	-22.60376	20.50640	11.67697	1
	-20.9892	23.30271	11.67697	1
	-19.37465	26.09902	11.67697	1
	-17.76009	28.89534	11.67697	1
	-16.14554	31.69165	11.67697	1
	-14.53099	34.48796	11.67697	1
	-12.91643	37.28428	11.67697	1
	-11.30188	40.08059	11.67697	1
	-22.60376	14.91377	11.67697	1
	-20.9892	17.71008	11.67697	1
	-19.37465	20.50640	11.67697	1
	-17.76009	23.30271	11.67697	1
	-16.14554	26.09902	11.67697	1
	-14.53099	28.89534	11.67697	1
	-12.91643	31.69165	11.67697	1
	-11.30188	34.48796	11.67697	1
	-9.68732	37.28428	11.67697	1
	-8.07277	40.08059	11.67697	1
	-6.45822	42.87690	11.67697	1
	-20.9892	12.11746	11.67697	1
	-19.37465	14.91377	11.67697	1
	-17.76009	17.71008	11.67697	1
	-16.14554	20.50640	11.67697	1
	-14.53099	23.30271	11.67697	1
	-12.91643	26.09902	11.67697	1
	-11.30188	28.89534	11.67697	1
	-9.68732	31.69165	11.67697	1
	-8.07277	34.48796	11.67697	1
	-6.45822	37.28428	11.67697	1
	-4.84366	40.08059	11.67697	1
	-3.22911	42.87690	11.67697	1
	-1.61455	45.67322	11.67697	1
	-17.76009	12.11746	11.67697	1
	-16.14554	14.91377	11.67697	1
	-14.53099	17.71008	11.67697	1
	-12.91643	20.50640	11.67697	1
	-11.30188	23.30271	11.67697	1
	-9.68732	26.09902	11.67697	1
	-8.07277	28.89534	11.67697	1
	-6.45822	31.69165	11.67697	1
	-4.84366	34.48796	11.67697	1
	-3.22911	37.28428	11.67697	1
	-1.61455	40.08059	11.67697	1
	0.000000	42.87690	11.67697	1
	1.614550	45.67322	11.67697	1
	-16.14554	9.321140	11.67697	1
	-14.53099	12.11746	11.67697	1
	-12.91643	14.91377	11.67697	1
	-11.30188	17.71008	11.67697	1
	-9.68732	20.50640	11.67697	1
	-8.07277	23.30271	11.67697	1
	-6.45822	26.09902	11.67697	1
	-4.84366	28.89534	11.67697	1
	-3.22911	31.69165	11.67697	1
	-1.61455	34.48796	11.67697	1
	0.000000	37.28428	11.67697	1
	1.614550	40.08059	11.67697	1
	3.229110	42.87690	11.67697	1
	-12.91643	9.321140	11.67697	1
	-11.30188	12.11746	11.67697	1
	-9.68732	14.91377	11.67697	1
	-8.07277	17.71008	11.67697	1
	-6.45822	20.50640	11.67697	1
	-4.84366	23.30271	11.67697	1
	-3.22911	26.09902	11.67697	1
	-1.61455	28.89534	11.67697	1
	0.000000	31.69165	11.67697	1
	1.614550	34.48796	11.67697	1
	3.229110	37.28428	11.67697	1
	4.843660	40.08059	11.67697	1
	6.458220	42.87690	11.67697	1
	-11.30188	6.524830	11.67697	1
	-9.68732	9.321140	11.67697	1
	-8.07277	12.11746	11.67697	1
	-6.45822	14.91377	11.67697	1
	-4.84366	17.71008	11.67697	1
	-3.22911	20.50640	11.67697	1
	-1.61455	23.30271	11.67697	1
	0.000000	26.09902	11.67697	1
	1.614550	28.89534	11.67697	1
	3.229110	31.69165	11.67697	1
	4.843660	34.48796	11.67697	1
	6.458220	37.28428	11.67697	1
	8.072770	40.08059	11.67697	1
	-8.07277	6.524830	11.67697	1
	-6.45822	9.321140	11.67697	1
	-4.84366	12.11746	11.67697	1
	-3.22911	14.91377	11.67697	1
	-1.61455	17.71008	11.67697	1
	0.000000	20.50640	11.67697	1
	1.614550	23.30271	11.67697	1
	3.229110	26.09902	11.67697	1
	4.843660	28.89534	11.67697	1
	6.458220	31.69165	11.67697	1
	8.072770	34.48796	11.67697	1
	9.687320	37.28428	11.67697	1
	11.30188	40.08059	11.67697	1
	-6.45822	3.728520	11.67697	1
	-4.84366	6.524830	11.67697	1
	-3.22911	9.321140	11.67697	1
	-1.61455	12.11746	11.67697	1
	0.000000	14.91377	11.67697	1
	1.614550	17.71008	11.67697	1
	3.229110	20.50640	11.67697	1
	4.843660	23.30271	11.67697	1
	6.458220	26.09902	11.67697	1
	8.072770	28.89534	11.67697	1
	9.687320	31.69165	11.67697	1
	11.30188	34.48796	11.67697	1
	12.91643	37.28428	11.67697	1
	-3.22911	3.728520	11.67697	1
	-1.61455	6.524830	11.67697	1
	0.000000	9.321140	11.67697	1
	1.614550	12.11746	11.67697	1
	3.229110	14.91377	11.67697	1
	4.843660	17.71008	11.67697	1
	6.458220	20.50640	11.67697	1
	8.072770	23.30271	11.67697	1
	9.687320	26.09902	11.67697	1
	11.30188	28.89534	11.67697	1
	12.91643	31.69165	11.67697	1
	14.53099	34.48796	11.67697	1
	16.14554	37.28428	11.67697	1
	-1.61455	0.932200	11.67697	1
	0.000000	3.728520	11.67697	1
	1.614550	6.524830	11.67697	1
	3.229110	9.321140	11.67697	1
	4.843660	12.11746	11.67697	1
	6.458220	14.91377	11.67697	1
	8.072770	17.71008	11.67697	1
	9.687320	20.50640	11.67697	1
	11.30188	23.30271	11.67697	1
	12.91643	26.09902	11.67697	1
	14.53099	28.89534	11.67697	1
	16.14554	31.69165	11.67697	1
	17.76009	34.48796	11.67697	1
	3.229110	3.728520	11.67697	1
	4.843660	6.524830	11.67697	1
	6.458220	9.321140	11.67697	1
	8.072770	12.11746	11.67697	1
	9.687320	14.91377	11.67697	1
	11.30188	17.71008	11.67697	1
	12.91643	20.50640	11.67697	1
	14.53099	23.30271	11.67697	1
	16.14554	26.09902	11.67697	1
	17.76009	28.89534	11.67697	1
	19.37465	31.69165	11.67697	1
	20.98920	34.48796	11.67697	1
	8.072770	6.524830	11.67697	1
	9.687320	9.321140	11.67697	1
	11.30188	12.11746	11.67697	1
	12.91643	14.91377	11.67697	1
	14.53099	17.71008	11.67697	1
	16.14554	20.50640	11.67697	1
	17.76009	23.30271	11.67697	1
	19.37465	26.09902	11.67697	1
	20.98920	28.89534	11.67697	1
	22.60376	31.69165	11.67697	1
	12.91643	9.321140	11.67697	1
	14.53099	12.11746	11.67697	1
	16.14554	14.91377	11.67697	1
	17.76009	17.71008	11.67697	1
	19.37465	20.50640	11.67697	1
	20.98920	23.30271	11.67697	1
	22.60376	26.09902	11.67697	1
	24.21831	28.89534	11.67697	1
	25.83286	31.69165	11.67697	1
	17.76009	12.11746	11.67697	1
	19.37465	14.91377	11.67697	1
	20.98920	17.71008	11.67697	1
	22.60376	20.50640	11.67697	1
	24.21831	23.30271	11.67697	1
	25.83286	26.09902	11.67697	1
	27.44742	28.89534	11.67697	1
	22.60376	14.91377	11.67697	1
	24.21831	17.71008	11.67697	1
	25.83286	20.50640	11.67697	1
	27.44742	23.30271	11.67697	1
	29.06197	26.09902	11.67697	1
	30.67653	28.89534	11.67697	1
	27.44742	17.71008	11.67697	1
	29.06197	20.50640	11.67697	1
	30.67653	23.30271	11.67697	1
	32.29108	26.09902	11.67697	1
	32.29108	20.50640	11.67697	1
	33.90563	23.30271	11.67697	1
	35.52019	26.09902	11.67697	1
	37.13474	23.30271	11.67697	1
	-38.63016	20.72958	18.89796	1
	-37.20904	23.62899	18.89796	1
	-35.40849	20.94866	18.89796	1
	-33.98737	23.84807	18.89796	1
	-32.56626	26.74748	18.89796	1
	-33.60794	18.26833	18.89796	1
	-32.18682	21.16774	18.89796	1
	-30.7657	24.06715	18.89796	1
	-29.34459	26.96656	18.89796	1
	-27.92347	29.86597	18.89796	1
	-30.38627	18.48741	18.89796	1
	-28.96515	21.38682	18.89796	1
	-27.54404	24.28623	18.89796	1
	-26.12292	27.18564	18.89796	1
	-24.7018	30.08505	18.89796	1
	-23.28069	32.98446	18.89796	1
	-28.58572	15.80708	18.89796	1
	-27.1646	18.70649	18.89796	1
	-25.74349	21.60590	18.89796	1
	-24.32237	24.50531	18.89796	1
	-22.90125	27.40472	18.89796	1
	-21.48013	30.30413	18.89796	1
	-20.05902	33.20354	18.89796	1
	-18.6379	36.10295	18.89796	1
	-25.36405	16.02616	18.89796	1
	-23.94294	18.92557	18.89796	1
	-22.52182	21.82498	18.89796	1
	-21.1007	24.72439	18.89796	1
	-19.67958	27.62380	18.89796	1
	-18.25847	30.52321	18.89796	1
	-16.83735	33.42262	18.89796	1
	-15.41623	36.32203	18.89796	1
	-13.99512	39.22144	18.89796	1
	-23.5635	13.34583	18.89796	1
	-22.14238	16.24524	18.89796	1
	-20.72127	19.14465	18.89796	1
	-19.30015	22.04406	18.89796	1
	-17.87903	24.94347	18.89796	1
	-16.45792	27.84288	18.89796	1
	-15.0368	30.74229	18.89796	1
	-13.61568	33.64170	18.89796	1
	-12.19456	36.54111	18.89796	1
	-10.77345	39.44052	18.89796	1
	-9.35233	42.33993	18.89796	1
	-20.34183	13.56491	18.89796	1
	-18.92072	16.46432	18.89796	1
	-17.4996	19.36373	18.89796	1
	-16.07848	22.26314	18.89796	1
	-14.65737	25.16255	18.89796	1
	-13.23625	28.06196	18.89796	1
	-11.81513	30.96137	18.89796	1
	-10.39401	33.86078	18.89796	1
	-8.97290	36.76019	18.89796	1
	-7.55178	39.65960	18.89796	1
	-6.13066	42.55901	18.89796	1
	-4.70955	45.45842	18.89796	1
	-18.54128	10.88458	18.89796	1
	-17.12017	13.78399	18.89796	1
	-15.69905	16.68340	18.89796	1
	-14.27793	19.58281	18.89796	1
	-12.85682	22.48222	18.89796	1
	-11.4357	25.38163	18.89796	1
	-10.01458	28.28104	18.89796	1
	-8.59346	31.18045	18.89796	1
	-7.17235	34.07986	18.89796	1
	-5.75123	36.97927	18.89796	1
	-4.33011	39.87868	18.89796	1
	-2.90900	42.77809	18.89796	1
	-1.48788	45.67750	18.89796	1
	-15.31962	11.10366	18.89796	1
	-13.8985	14.00307	18.89796	1
	-12.47738	16.90248	18.89796	1
	-11.05626	19.80189	18.89796	1
	-9.63515	22.70130	18.89796	1
	-8.21403	25.60071	18.89796	1
	-6.79291	28.50012	18.89796	1
	-5.37180	31.39953	18.89796	1
	-3.95068	34.29894	18.89796	1
	-2.52956	37.19835	18.89796	1
	-1.10844	40.09776	18.89796	1
	0.312670	42.99717	18.89796	1
	-13.51907	8.423330	18.89796	1
	-12.09795	11.32274	18.89796	1
	-10.67683	14.22215	18.89796	1
	-9.25571	17.12156	18.89796	1
	-7.83460	20.02097	18.89796	1
	-6.41348	22.92038	18.89796	1
	-4.99236	25.81979	18.89796	1
	-3.57125	28.71920	18.89796	1
	-2.15013	31.61861	18.89796	1
	-0.72901	34.51802	18.89796	1
	0.692110	37.41743	18.89796	1
	2.113220	40.31684	18.89796	1
	3.534340	43.21625	18.89796	1
	-10.2974	8.642410	18.89796	1
	-8.87628	11.54182	18.89796	1
	-7.45516	14.44123	18.89796	1
	-6.03405	17.34064	18.89796	1
	-4.61293	20.24005	18.89796	1
	-3.19181	23.13946	18.89796	1
	-1.77069	26.03887	18.89796	1
	-0.34958	28.93828	18.89796	1
	1.071540	31.83769	18.89796	1
	2.492660	34.73710	18.89796	1
	3.913770	37.63651	18.89796	1
	5.334890	40.53592	18.89796	1
	-8.49685	5.962080	18.89796	1
	-7.07573	8.861490	18.89796	1
	-5.65461	11.76090	18.89796	1
	-4.23350	14.66031	18.89796	1
	-2.81238	17.55972	18.89796	1
	-1.39126	20.45913	18.89796	1
	0.029860	23.35854	18.89796	1
	1.450970	26.25795	18.89796	1
	2.872090	29.15736	18.89796	1
	4.293210	32.05677	18.89796	1
	5.714320	34.95618	18.89796	1
	7.135440	37.85559	18.89796	1
	8.556560	40.75500	18.89796	1
	-5.27518	6.181160	18.89796	1
	-3.85406	9.080570	18.89796	1
	-2.43295	11.97998	18.89796	1
	-1.01183	14.87939	18.89796	1
	0.409290	17.77880	18.89796	1
	1.830410	20.67821	18.89796	1
	3.251520	23.57762	18.89796	1
	4.672640	26.47703	18.89796	1
	6.093760	29.37644	18.89796	1
	7.514870	32.27585	18.89796	1
	8.935990	35.17526	18.89796	1
	10.35711	38.07467	18.89796	1
	-3.47463	3.500820	18.89796	1
	-2.05351	6.400230	18.89796	1
	-0.63239	9.299640	18.89796	1
	0.788720	12.19905	18.89796	1
	2.209840	15.09847	18.89796	1
	3.630960	17.99788	18.89796	1
	5.052070	20.89729	18.89796	1
	6.473190	23.79670	18.89796	1
	7.894310	26.69611	18.89796	1
	9.315430	29.59552	18.89796	1
	10.73654	32.49493	18.89796	1
	12.15766	35.39434	18.89796	1
	13.57878	38.29375	18.89796	1
	-0.25296	3.719900	18.89796	1
	1.168160	6.619310	18.89796	1
	2.589270	9.518720	18.89796	1
	4.010390	12.41813	18.89796	1
	5.431510	15.31754	18.89796	1
	6.852620	18.21695	18.89796	1
	8.273740	21.11636	18.89796	1
	9.694860	24.01578	18.89796	1
	11.11598	26.91519	18.89796	1
	12.53709	29.81460	18.89796	1
	13.95821	32.71401	18.89796	1
	15.37933	35.61342	18.89796	1
	1.547590	1.039570	18.89796	1
	2.968710	3.938980	18.89796	1
	4.389820	6.838390	18.89796	1
	5.810940	9.737800	18.89796	1
	7.232060	12.63721	18.89796	1
	8.653180	15.53662	18.89796	1
	10.07429	18.43603	18.89796	1
	11.49541	21.33544	18.89796	1
	12.91653	24.23485	18.89796	1
	14.33764	27.13426	18.89796	1
	15.75876	30.03367	18.89796	1
	17.17988	32.93309	18.89796	1
	18.60100	35.83250	18.89796	1
	6.190370	4.158060	18.89796	1
	7.611490	7.057470	18.89796	1
	9.032610	9.956880	18.89796	1
	10.45373	12.85629	18.89796	1
	11.87484	15.75570	18.89796	1
	13.29596	18.65511	18.89796	1
	14.71708	21.55452	18.89796	1
	16.13819	24.45393	18.89796	1
	17.55931	27.35334	18.89796	1
	18.98043	30.25275	18.89796	1
	20.40155	33.15216	18.89796	1
	10.83316	7.276550	18.89796	1
	12.25428	10.17596	18.89796	1
	13.67539	13.07537	18.89796	1
	15.09651	15.97478	18.89796	1
	16.51763	18.87419	18.89796	1
	17.93875	21.77360	18.89796	1
	19.35986	24.67301	18.89796	1
	20.78098	27.57242	18.89796	1
	22.20210	30.47183	18.89796	1
	23.62321	33.37124	18.89796	1
	15.47594	10.39504	18.89796	1
	16.89706	13.29445	18.89796	1
	18.31818	16.19386	18.89796	1
	19.73930	19.09327	18.89796	1
	21.16041	21.99268	18.89796	1
	22.58153	24.89209	18.89796	1
	24.00265	27.79150	18.89796	1
	25.42376	30.69091	18.89796	1
	20.11873	13.51353	18.89796	1
	21.53985	16.41294	18.89796	1
	22.96096	19.31235	18.89796	1
	24.38208	22.21176	18.89796	1
	25.80320	25.11117	18.89796	1
	27.22431	28.01058	18.89796	1
	28.64543	30.90999	18.89796	1
	24.76151	16.63202	18.89796	1
	26.18263	19.53143	18.89796	1
	27.60375	22.43084	18.89796	1
	29.02487	25.33025	18.89796	1
	30.44598	28.22966	18.89796	1
	29.40430	19.75051	18.89796	1
	30.82542	22.64992	18.89796	1
	32.24653	25.54933	18.89796	1
	33.66765	28.44874	18.89796	1
	34.04708	22.86900	18.89796	1
	35.46820	25.76841	18.89796	1
	38.68987	25.98749	18.89796	1
	-38.7493	24.23451	13.38910	2
	-37.13474	21.43820	13.38910	2
	-35.52019	24.23451	13.38910	2
	-33.90563	27.03082	13.38910	2
	-33.90563	21.43820	13.38910	2
	-32.29108	24.23451	13.38910	2
	-30.67653	27.03082	13.38910	2
	-29.06197	29.82713	13.38910	2
	-32.29108	18.64188	13.38910	2
	-30.67653	21.43820	13.38910	2
	-29.06197	24.23451	13.38910	2
	-27.44742	27.03082	13.38910	2
	-25.83286	29.82713	13.38910	2
	-24.21831	32.62345	13.38910	2
	-29.06197	18.64188	13.38910	2
	-27.44742	21.43820	13.38910	2
	-25.83286	24.23451	13.38910	2
	-24.21831	27.03082	13.38910	2
	-22.60376	29.82713	13.38910	2
	-20.9892	32.62345	13.38910	2
	-19.37465	35.41976	13.38910	2
	-27.44742	15.84557	13.38910	2
	-25.83286	18.64188	13.38910	2
	-24.21831	21.43820	13.38910	2
	-22.60376	24.23451	13.38910	2
	-20.9892	27.03082	13.38910	2
	-19.37465	29.82713	13.38910	2
	-17.76009	32.62345	13.38910	2
	-16.14554	35.41976	13.38910	2
	-14.53099	38.21607	13.38910	2
	-24.21831	15.84557	13.38910	2
	-22.60376	18.64188	13.38910	2
	-20.9892	21.43820	13.38910	2
	-19.37465	24.23451	13.38910	2
	-17.76009	27.03082	13.38910	2
	-16.14554	29.82713	13.38910	2
	-14.53099	32.62345	13.38910	2
	-12.91643	35.41976	13.38910	2
	-11.30188	38.21607	13.38910	2
	-9.68732	41.01239	13.38910	2
	-22.60376	13.04926	13.38910	2
	-20.9892	15.84557	13.38910	2
	-19.37465	18.64188	13.38910	2
	-17.76009	21.43820	13.38910	2
	-16.14554	24.23451	13.38910	2
	-14.53099	27.03082	13.38910	2
	-12.91643	29.82713	13.38910	2
	-11.30188	32.62345	13.38910	2
	-9.68732	35.41976	13.38910	2
	-8.07277	38.21607	13.38910	2
	-6.45822	41.01239	13.38910	2
	-4.84366	43.80870	13.38910	2
	-19.37465	13.04926	13.38910	2
	-17.76009	15.84557	13.38910	2
	-16.14554	18.64188	13.38910	2
	-14.53099	21.43820	13.38910	2
	-12.91643	24.23451	13.38910	2
	-11.30188	27.03082	13.38910	2
	-9.68732	29.82713	13.38910	2
	-8.07277	32.62345	13.38910	2
	-6.45822	35.41976	13.38910	2
	-4.84366	38.21607	13.38910	2
	-3.22911	41.01239	13.38910	2
	-1.61455	43.80870	13.38910	2
	-0.00000	46.60501	13.38910	2
	-17.76009	10.25294	13.38910	2
	-16.14554	13.04926	13.38910	2
	-14.53099	15.84557	13.38910	2
	-12.91643	18.64188	13.38910	2
	-11.30188	21.43820	13.38910	2
	-9.68732	24.23451	13.38910	2
	-8.07277	27.03082	13.38910	2
	-6.45822	29.82713	13.38910	2
	-4.84366	32.62345	13.38910	2
	-3.22911	35.41976	13.38910	2
	-1.61455	38.21607	13.38910	2
	-0.00000	41.01239	13.38910	2
	1.614550	43.80870	13.38910	2
	-14.53099	10.25294	13.38910	2
	-12.91643	13.04926	13.38910	2
	-11.30188	15.84557	13.38910	2
	-9.68732	18.64188	13.38910	2
	-8.07277	21.43820	13.38910	2
	-6.45822	24.23451	13.38910	2
	-4.84366	27.03082	13.38910	2
	-3.22911	29.82713	13.38910	2
	-1.61455	32.62345	13.38910	2
	-0.00000	35.41976	13.38910	2
	1.614550	38.21607	13.38910	2
	3.229110	41.01239	13.38910	2
	4.843660	43.80870	13.38910	2
	-12.91643	7.456630	13.38910	2
	-11.30188	10.25294	13.38910	2
	-9.68732	13.04926	13.38910	2
	-8.07277	15.84557	13.38910	2
	-6.45822	18.64188	13.38910	2
	-4.84366	21.43820	13.38910	2
	-3.22911	24.23451	13.38910	2
	-1.61455	27.03082	13.38910	2
	-0.00000	29.82713	13.38910	2
	1.614550	32.62345	13.38910	2
	3.229110	35.41976	13.38910	2
	4.843660	38.21607	13.38910	2
	6.458220	41.01239	13.38910	2
	-9.68732	7.456630	13.38910	2
	-8.07277	10.25294	13.38910	2
	-6.45822	13.04926	13.38910	2
	-4.84366	15.84557	13.38910	2
	-3.22911	18.64188	13.38910	2
	-1.61455	21.43820	13.38910	2
	-0.00000	24.23451	13.38910	2
	1.614550	27.03082	13.38910	2
	3.229110	29.82713	13.38910	2
	4.843660	32.62345	13.38910	2
	6.458220	35.41976	13.38910	2
	8.072770	38.21607	13.38910	2
	9.687320	41.01239	13.38910	2
	-8.07277	4.660320	13.38910	2
	-6.45822	7.456630	13.38910	2
	-4.84366	10.25294	13.38910	2
	-3.22911	13.04926	13.38910	2
	-1.61455	15.84557	13.38910	2
	-0.00000	18.64188	13.38910	2
	1.614550	21.43820	13.38910	2
	3.229110	24.23451	13.38910	2
	4.843660	27.03082	13.38910	2
	6.458220	29.82713	13.38910	2
	8.072770	32.62345	13.38910	2
	9.687320	35.41976	13.38910	2
	11.30188	38.21607	13.38910	2
	-4.84366	4.660320	13.38910	2
	-3.22911	7.456630	13.38910	2
	-1.61455	10.25294	13.38910	2
	-0.00000	13.04926	13.38910	2
	1.614550	15.84557	13.38910	2
	3.229110	18.64188	13.38910	2
	4.843660	21.43820	13.38910	2
	6.458220	24.23451	13.38910	2
	8.072770	27.03082	13.38910	2
	9.687320	29.82713	13.38910	2
	11.30188	32.62345	13.38910	2
	12.91643	35.41976	13.38910	2
	14.53099	38.21607	13.38910	2
	-3.22911	1.864000	13.38910	2
	-1.61455	4.660320	13.38910	2
	-0.00000	7.456630	13.38910	2
	1.614550	10.25294	13.38910	2
	3.229110	13.04926	13.38910	2
	4.843660	15.84557	13.38910	2
	6.458220	18.64188	13.38910	2
	8.072770	21.43820	13.38910	2
	9.687320	24.23451	13.38910	2
	11.30188	27.03082	13.38910	2
	12.91643	29.82713	13.38910	2
	14.53099	32.62345	13.38910	2
	16.14554	35.41976	13.38910	2
	-0.00000	1.864000	13.38910	2
	1.614550	4.660320	13.38910	2
	3.229110	7.456630	13.38910	2
	4.843660	10.25294	13.38910	2
	6.458220	13.04926	13.38910	2
	8.072770	15.84557	13.38910	2
	9.687320	18.64188	13.38910	2
	11.30188	21.43820	13.38910	2
	12.91643	24.23451	13.38910	2
	14.53099	27.03082	13.38910	2
	16.14554	29.82713	13.38910	2
	17.76009	32.62345	13.38910	2
	19.37465	35.41976	13.38910	2
	4.843660	4.660320	13.38910	2
	6.458220	7.456630	13.38910	2
	8.072770	10.25294	13.38910	2
	9.687320	13.04926	13.38910	2
	11.30188	15.84557	13.38910	2
	12.91643	18.64188	13.38910	2
	14.53099	21.43820	13.38910	2
	16.14554	24.23451	13.38910	2
	17.76009	27.03082	13.38910	2
	19.37465	29.82713	13.38910	2
	20.98920	32.62345	13.38910	2
	9.687320	7.456630	13.38910	2
	11.30188	10.25294	13.38910	2
	12.91643	13.04926	13.38910	2
	14.53099	15.84557	13.38910	2
	16.14554	18.64188	13.38910	2
	17.76009	21.43820	13.38910	2
	19.37465	24.23451	13.38910	2
	20.98920	27.03082	13.38910	2
	22.60376	29.82713	13.38910	2
	24.21831	32.62345	13.38910	2
	14.53099	10.25294	13.38910	2
	16.14554	13.04926	13.38910	2
	17.76009	15.84557	13.38910	2
	19.37465	18.64188	13.38910	2
	20.98920	21.43820	13.38910	2
	22.60376	24.23451	13.38910	2
	24.21831	27.03082	13.38910	2
	25.83286	29.82713	13.38910	2
	19.37465	13.04926	13.38910	2
	20.98920	15.84557	13.38910	2
	22.60376	18.64188	13.38910	2
	24.21831	21.43820	13.38910	2
	25.83286	24.23451	13.38910	2
	27.44742	27.03082	13.38910	2
	29.06197	29.82713	13.38910	2
	24.21831	15.84557	13.38910	2
	25.83286	18.64188	13.38910	2
	27.44742	21.43820	13.38910	2
	29.06197	24.23451	13.38910	2
	30.67653	27.03082	13.38910	2
	29.06197	18.64188	13.38910	2
	30.67653	21.43820	13.38910	2
	32.29108	24.23451	13.38910	2
	33.90563	27.03082	13.38910	2
	33.90563	21.43820	13.38910	2
	35.52019	24.23451	13.38910	2
	38.74930	24.23451	13.38910	2
	-40.30422	21.54978	17.18503	2
	-37.08255	21.76886	17.18503	2
	-35.66143	24.66827	17.18503	2
	-35.2820	19.08853	17.18503	2
	-33.86088	21.98794	17.18503	2
	-32.43976	24.88735	17.18503	2
	-31.01865	27.78676	17.18503	2
	-32.06033	19.30761	17.18503	2
	-30.63921	22.20702	17.18503	2
	-29.21809	25.10643	17.18503	2
	-27.79698	28.00584	17.18503	2
	-26.37586	30.90525	17.18503	2
	-30.25978	16.62728	17.18503	2
	-28.83866	19.52669	17.18503	2
	-27.41754	22.42610	17.18503	2
	-25.99643	25.32551	17.18503	2
	-24.57531	28.22492	17.18503	2
	-23.15419	31.12433	17.18503	2
	-21.73308	34.02374	17.18503	2
	-27.03811	16.84636	17.18503	2
	-25.61699	19.74577	17.18503	2
	-24.19588	22.64518	17.18503	2
	-22.77476	25.54459	17.18503	2
	-21.35364	28.44400	17.18503	2
	-19.93252	31.34341	17.18503	2
	-18.51141	34.24282	17.18503	2
	-17.09029	37.14223	17.18503	2
	-25.23756	14.16602	17.18503	2
	-23.81644	17.06544	17.18503	2
	-22.39533	19.96485	17.18503	2
	-20.97421	22.86426	17.18503	2
	-19.55309	25.76367	17.18503	2
	-18.13197	28.66308	17.18503	2
	-16.71086	31.56249	17.18503	2
	-15.28974	34.46190	17.18503	2
	-13.86862	37.36131	17.18503	2
	-12.44751	40.26072	17.18503	2
	-22.01589	14.38510	17.18503	2
	-20.59478	17.28451	17.18503	2
	-19.17366	20.18392	17.18503	2
	-17.75254	23.08333	17.18503	2
	-16.33142	25.98275	17.18503	2
	-14.91031	28.88216	17.18503	2
	-13.48919	31.78157	17.18503	2
	-12.06807	34.68098	17.18503	2
	-10.64696	37.58039	17.18503	2
	-9.22584	40.47980	17.18503	2
	-7.80472	43.37921	17.18503	2
	-20.21534	11.70477	17.18503	2
	-18.79422	14.60418	17.18503	2
	-17.37311	17.50359	17.18503	2
	-15.95199	20.40300	17.18503	2
	-14.53087	23.30241	17.18503	2
	-13.10976	26.20182	17.18503	2
	-11.68864	29.10123	17.18503	2
	-10.26752	32.00064	17.18503	2
	-8.84640	34.90006	17.18503	2
	-7.42529	37.79947	17.18503	2
	-6.00417	40.69888	17.18503	2
	-4.58305	43.59829	17.18503	2
	-3.16194	46.49770	17.18503	2
	-16.99367	11.92385	17.18503	2
	-15.57256	14.82326	17.18503	2
	-14.15144	17.72267	17.18503	2
	-12.73032	20.62208	17.18503	2
	-11.30921	23.52149	17.18503	2
	-9.88809	26.42090	17.18503	2
	-8.46697	29.32031	17.18503	2
	-7.04585	32.21972	17.18503	2
	-5.62474	35.11913	17.18503	2
	-4.20362	38.01854	17.18503	2
	-2.78250	40.91796	17.18503	2
	-1.36139	43.81737	17.18503	2
	-15.19312	9.243520	17.18503	2
	-13.77201	12.14293	17.18503	2
	-12.35089	15.04234	17.18503	2
	-10.92977	17.94175	17.18503	2
	-9.50865	20.84116	17.18503	2
	-8.08754	23.74057	17.18503	2
	-6.66642	26.63998	17.18503	2
	-5.24530	29.53939	17.18503	2
	-3.82419	32.43880	17.18503	2
	-2.40307	35.33821	17.18503	2
	-0.98195	38.23762	17.18503	2
	0.439170	41.13703	17.18503	2
	1.860280	44.03644	17.18503	2
	-11.97146	9.462600	17.18503	2
	-10.55034	12.36201	17.18503	2
	-9.12922	15.26142	17.18503	2
	-7.70810	18.16083	17.18503	2
	-6.28699	21.06024	17.18503	2
	-4.86587	23.95965	17.18503	2
	-3.44475	26.85906	17.18503	2
	-2.02364	29.75847	17.18503	2
	-0.60252	32.65788	17.18503	2
	0.818600	35.55729	17.18503	2
	2.239720	38.45670	17.18503	2
	3.660830	41.35611	17.18503	2
	-10.1709	6.782270	17.18503	2
	-8.74979	9.681680	17.18503	2
	-7.32867	12.58109	17.18503	2
	-5.90755	15.48050	17.18503	2
	-4.48644	18.37991	17.18503	2
	-3.06532	21.27932	17.18503	2
	-1.64420	24.17873	17.18503	2
	-0.22309	27.07814	17.18503	2
	1.198030	29.97755	17.18503	2
	2.619150	32.87696	17.18503	2
	4.040270	35.77637	17.18503	2
	5.461380	38.67578	17.18503	2
	6.882500	41.57519	17.18503	2
	-6.94924	7.001350	17.18503	2
	-5.52812	9.900760	17.18503	2
	-4.10700	12.80017	17.18503	2
	-2.68589	15.69958	17.18503	2
	-1.26477	18.59899	17.18503	2
	0.156350	21.49840	17.18503	2
	1.577470	24.39781	17.18503	2
	2.998580	27.29722	17.18503	2
	4.419700	30.19663	17.18503	2
	5.840820	33.09604	17.18503	2
	7.261930	35.99545	17.18503	2
	8.683050	38.89486	17.18503	2
	-5.14869	4.321020	17.18503	2
	-3.72757	7.220430	17.18503	2
	-2.30645	10.11984	17.18503	2
	-0.88534	13.01925	17.18503	2
	0.535780	15.91866	17.18503	2
	1.956900	18.81807	17.18503	2
	3.378020	21.71748	17.18503	2
	4.799130	24.61689	17.18503	2
	6.220250	27.51630	17.18503	2
	7.641370	30.41571	17.18503	2
	9.062480	33.31512	17.18503	2
	10.48360	36.21453	17.18503	2
	11.90472	39.11394	17.18503	2
	-1.92702	4.540100	17.18503	2
	-0.50590	7.439510	17.18503	2
	0.915220	10.33892	17.18503	2
	2.336330	13.23833	17.18503	2
	3.757450	16.13774	17.18503	2
	5.178570	19.03715	17.18503	2
	6.599680	21.93656	17.18503	2
	8.020800	24.83597	17.18503	2
	9.441920	27.73538	17.18503	2
	10.86304	30.63479	17.18503	2
	12.28415	33.53420	17.18503	2
	13.70527	36.43361	17.18503	2
	-0.12647	1.859770	17.18503	2
	1.294650	4.759180	17.18503	2
	2.715770	7.658590	17.18503	2
	4.136880	10.55800	17.18503	2
	5.558000	13.45741	17.18503	2
	6.979120	16.35682	17.18503	2
	8.400230	19.25623	17.18503	2
	9.821350	22.15564	17.18503	2
	11.24247	25.05505	17.18503	2
	12.66359	27.95446	17.18503	2
	14.08470	30.85387	17.18503	2
	15.50582	33.75328	17.18503	2
	16.92694	36.65269	17.18503	2
	3.095200	2.078850	17.18503	2
	4.516320	4.978260	17.18503	2
	5.937430	7.877670	17.18503	2
	7.358550	10.77708	17.18503	2
	8.779670	13.67649	17.18503	2
	10.20079	16.57590	17.18503	2
	11.62190	19.47531	17.18503	2
	13.04302	22.37472	17.18503	2
	14.46414	25.27413	17.18503	2
	15.88525	28.17354	17.18503	2
	17.30637	31.07295	17.18503	2
	18.72749	33.97236	17.18503	2
	7.737980	5.197340	17.18503	2
	9.159100	8.096750	17.18503	2
	10.58022	10.99616	17.18503	2
	12.00134	13.89557	17.18503	2
	13.42245	16.79498	17.18503	2
	14.84357	19.69439	17.18503	2
	16.26469	22.59380	17.18503	2
	17.68580	25.49321	17.18503	2
	19.10692	28.39262	17.18503	2
	20.52804	31.29203	17.18503	2
	21.94916	34.19144	17.18503	2
	12.38077	8.315830	17.18503	2
	13.80189	11.21524	17.18503	2
	15.22300	14.11465	17.18503	2
	16.64412	17.01406	17.18503	2
	18.06524	19.91347	17.18503	2
	19.48635	22.81288	17.18503	2
	20.90747	25.71229	17.18503	2
	22.32859	28.61170	17.18503	2
	23.74971	31.51111	17.18503	2
	17.02355	11.43432	17.18503	2
	18.44467	14.33373	17.18503	2
	19.86579	17.23314	17.18503	2
	21.28691	20.13255	17.18503	2
	22.70802	23.03196	17.18503	2
	24.12914	25.93137	17.18503	2
	25.55026	28.83078	17.18503	2
	26.97137	31.73019	17.18503	2
	21.66634	14.55281	17.18503	2
	23.08746	17.45222	17.18503	2
	24.50857	20.35163	17.18503	2
	25.92969	23.25104	17.18503	2
	27.35081	26.15045	17.18503	2
	28.77192	29.04986	17.18503	2
	26.30912	17.67130	17.18503	2
	27.73024	20.57071	17.18503	2
	29.15136	23.47012	17.18503	2
	30.57248	26.36953	17.18503	2
	31.99359	29.26894	17.18503	2
	30.95191	20.78979	17.18503	2
	32.37303	23.68920	17.18503	2
	33.79414	26.58861	17.18503	2
	35.59469	23.90828	17.18503	2
	37.01581	26.80769	17.18503	2
	-38.7493	24.23477	10.14046	3
	-37.13474	21.43845	10.14046	3
	-35.52019	24.23477	10.14046	3
	-33.90563	27.03108	10.14046	3
	-33.90563	21.43845	10.14046	3
	-32.29108	24.23477	10.14046	3
	-30.67653	27.03108	10.14046	3
	-29.06197	29.82739	10.14046	3
	-32.29108	18.64214	10.14046	3
	-30.67653	21.43845	10.14046	3
	-29.06197	24.23477	10.14046	3
	-27.44742	27.03108	10.14046	3
	-25.83286	29.82739	10.14046	3
	-24.21831	32.62371	10.14046	3
	-29.06197	18.64214	10.14046	3
	-27.44742	21.43845	10.14046	3
	-25.83286	24.23477	10.14046	3
	-24.21831	27.03108	10.14046	3
	-22.60376	29.82739	10.14046	3
	-20.9892	32.62371	10.14046	3
	-19.37465	35.42002	10.14046	3
	-27.44742	15.84583	10.14046	3
	-25.83286	18.64214	10.14046	3
	-24.21831	21.43845	10.14046	3
	-22.60376	24.23477	10.14046	3
	-20.9892	27.03108	10.14046	3
	-19.37465	29.82739	10.14046	3
	-17.76009	32.62371	10.14046	3
	-16.14554	35.42002	10.14046	3
	-14.53099	38.21633	10.14046	3
	-24.21831	15.84583	10.14046	3
	-22.60376	18.64214	10.14046	3
	-20.9892	21.43845	10.14046	3
	-19.37465	24.23477	10.14046	3
	-17.76009	27.03108	10.14046	3
	-16.14554	29.82739	10.14046	3
	-14.53099	32.62371	10.14046	3
	-12.91643	35.42002	10.14046	3
	-11.30188	38.21633	10.14046	3
	-9.68732	41.01265	10.14046	3
	-22.60376	13.04951	10.14046	3
	-20.9892	15.84583	10.14046	3
	-19.37465	18.64214	10.14046	3
	-17.76009	21.43845	10.14046	3
	-16.14554	24.23477	10.14046	3
	-14.53099	27.03108	10.14046	3
	-12.91643	29.82739	10.14046	3
	-11.30188	32.62371	10.14046	3
	-9.68732	35.42002	10.14046	3
	-8.07277	38.21633	10.14046	3
	-6.45822	41.01265	10.14046	3
	-4.84366	43.80896	10.14046	3
	-19.37465	13.04951	10.14046	3
	-17.76009	15.84583	10.14046	3
	-16.14554	18.64214	10.14046	3
	-14.53099	21.43845	10.14046	3
	-12.91643	24.23477	10.14046	3
	-11.30188	27.03108	10.14046	3
	-9.68732	29.82739	10.14046	3
	-8.07277	32.62371	10.14046	3
	-6.45822	35.42002	10.14046	3
	-4.84366	38.21633	10.14046	3
	-3.22911	41.01265	10.14046	3
	-1.61455	43.80896	10.14046	3
	-0.00000	46.60527	10.14046	3
	-17.76009	10.25320	10.14046	3
	-16.14554	13.04951	10.14046	3
	-14.53099	15.84583	10.14046	3
	-12.91643	18.64214	10.14046	3
	-11.30188	21.43845	10.14046	3
	-9.68732	24.23477	10.14046	3
	-8.07277	27.03108	10.14046	3
	-6.45822	29.82739	10.14046	3
	-4.84366	32.62371	10.14046	3
	-3.22911	35.42002	10.14046	3
	-1.61455	38.21633	10.14046	3
	-0.00000	41.01265	10.14046	3
	1.614550	43.80896	10.14046	3
	-14.53099	10.25320	10.14046	3
	-12.91643	13.04951	10.14046	3
	-11.30188	15.84583	10.14046	3
	-9.68732	18.64214	10.14046	3
	-8.07277	21.43845	10.14046	3
	-6.45822	24.23477	10.14046	3
	-4.84366	27.03108	10.14046	3
	-3.22911	29.82739	10.14046	3
	-1.61455	32.62371	10.14046	3
	-0.00000	35.42002	10.14046	3
	1.614550	38.21633	10.14046	3
	3.229110	41.01265	10.14046	3
	4.843660	43.80896	10.14046	3
	-12.91643	7.456890	10.14046	3
	-11.30188	10.25320	10.14046	3
	-9.68732	13.04951	10.14046	3
	-8.07277	15.84583	10.14046	3
	-6.45822	18.64214	10.14046	3
	-4.84366	21.43845	10.14046	3
	-3.22911	24.23477	10.14046	3
	-1.61455	27.03108	10.14046	3
	-0.00000	29.82739	10.14046	3
	1.614550	32.62371	10.14046	3
	3.229110	35.42002	10.14046	3
	4.843660	38.21633	10.14046	3
	6.458220	41.01265	10.14046	3
	-9.68732	7.456890	10.14046	3
	-8.07277	10.25320	10.14046	3