#------------------ General system descriptors --------------#
SystemName        twist25
SystemLabel       twist25

NumberOfSpecies   3
NumberOfAtoms     234

%block ChemicalSpeciesLabel
	1	42	Mo
	2	34	Se
	3	16	S
%endblock ChemicalSpeciesLabel

LatticeConstant        1.0 Ang
%block LatticeVectors
	14.53100	13.98160	0.000000
	-19.3739	5.593400	0.000000
	0.000000	0.000000	30.63480
%endblock LatticeVectors

AtomicCoordinatesFormat  Ang

%block AtomicCoordinatesAndAtomicSpecies
	-17.76009	6.524830	11.67697	1
	-14.53099	6.524830	11.67697	1
	-12.91643	9.321140	11.67697	1
	-11.30188	12.11746	11.67697	1
	-12.91643	3.728520	11.67697	1
	-11.30188	6.524830	11.67697	1
	-9.68732	9.321140	11.67697	1
	-8.07277	12.11746	11.67697	1
	-6.45822	14.91377	11.67697	1
	-4.84366	17.71008	11.67697	1
	-9.68732	3.728520	11.67697	1
	-8.07277	6.524830	11.67697	1
	-6.45822	9.321140	11.67697	1
	-4.84366	12.11746	11.67697	1
	-3.22911	14.91377	11.67697	1
	-1.61455	17.71008	11.67697	1
	-6.45822	3.728520	11.67697	1
	-4.84366	6.524830	11.67697	1
	-3.22911	9.321140	11.67697	1
	-1.61455	12.11746	11.67697	1
	0.000000	14.91377	11.67697	1
	-3.22911	3.728520	11.67697	1
	-1.61455	6.524830	11.67697	1
	0.000000	9.321140	11.67697	1
	1.614550	12.11746	11.67697	1
	3.229110	14.91377	11.67697	1
	-1.61455	0.932200	11.67697	1
	0.000000	3.728520	11.67697	1
	1.614550	6.524830	11.67697	1
	3.229110	9.321140	11.67697	1
	4.843660	12.11746	11.67697	1
	6.458220	14.91377	11.67697	1
	3.229110	3.728520	11.67697	1
	4.843660	6.524830	11.67697	1
	6.458220	9.321140	11.67697	1
	8.072770	12.11746	11.67697	1
	9.687320	14.91377	11.67697	1
	9.687320	9.321140	11.67697	1
	11.30188	12.11746	11.67697	1
	-15.64843	5.448960	18.89796	1
	-15.52416	8.675530	18.89796	1
	-12.91619	3.728200	18.89796	1
	-12.79192	6.954760	18.89796	1
	-12.66764	10.18133	18.89796	1
	-10.05968	5.234000	18.89796	1
	-9.93540	8.460570	18.89796	1
	-9.81112	11.68713	18.89796	1
	-7.32744	3.513240	18.89796	1
	-7.20316	6.739810	18.89796	1
	-7.07888	9.966370	18.89796	1
	-6.95460	13.19293	18.89796	1
	-6.83032	16.41949	18.89796	1
	-4.59520	1.792480	18.89796	1
	-4.47092	5.019050	18.89796	1
	-4.34664	8.245610	18.89796	1
	-4.22236	11.47217	18.89796	1
	-4.09808	14.69873	18.89796	1
	-3.97380	17.92530	18.89796	1
	-1.73868	3.298280	18.89796	1
	-1.61440	6.524850	18.89796	1
	-1.49012	9.751410	18.89796	1
	-1.36584	12.97797	18.89796	1
	-1.24156	16.20454	18.89796	1
	0.993560	1.577520	18.89796	1
	1.117840	4.804090	18.89796	1
	1.242120	8.030650	18.89796	1
	1.366400	11.25721	18.89796	1
	1.490680	14.48378	18.89796	1
	3.974360	6.309890	18.89796	1
	4.098640	9.536450	18.89796	1
	4.222920	12.76301	18.89796	1
	4.347200	15.98958	18.89796	1
	6.830880	7.815690	18.89796	1
	6.955160	11.04225	18.89796	1
	7.079440	14.26882	18.89796	1
	9.687400	9.321490	18.89796	1
	9.811680	12.54806	18.89796	1
	12.66819	14.05386	18.89796	1
	-16.14554	7.456630	13.38910	2
	-14.53099	4.660320	13.38910	2
	-12.91643	7.456630	13.38910	2
	-11.30188	10.25294	13.38910	2
	-9.68732	13.04926	13.38910	2
	-8.07277	15.84557	13.38910	2
	-11.30188	4.660320	13.38910	2
	-9.68732	7.456630	13.38910	2
	-8.07277	10.25294	13.38910	2
	-6.45822	13.04926	13.38910	2
	-4.84366	15.84557	13.38910	2
	-3.22911	18.64188	13.38910	2
	-8.07277	4.660320	13.38910	2
	-6.45822	7.456630	13.38910	2
	-4.84366	10.25294	13.38910	2
	-3.22911	13.04926	13.38910	2
	-1.61455	15.84557	13.38910	2
	-6.45822	1.864000	13.38910	2
	-4.84366	4.660320	13.38910	2
	-3.22911	7.456630	13.38910	2
	-1.61455	10.25294	13.38910	2
	-0.00000	13.04926	13.38910	2
	1.614550	15.84557	13.38910	2
	-3.22911	1.864000	13.38910	2
	-1.61455	4.660320	13.38910	2
	-0.00000	7.456630	13.38910	2
	1.614550	10.25294	13.38910	2
	3.229110	13.04926	13.38910	2
	4.843660	15.84557	13.38910	2
	-0.00000	1.864000	13.38910	2
	1.614550	4.660320	13.38910	2
	3.229110	7.456630	13.38910	2
	4.843660	10.25294	13.38910	2
	6.458220	13.04926	13.38910	2
	4.843660	4.660320	13.38910	2
	6.458220	7.456630	13.38910	2
	8.072770	10.25294	13.38910	2
	9.687320	13.04926	13.38910	2
	12.91643	13.04926	13.38910	2
	-17.51125	5.520420	17.18503	2
	-14.65473	7.026220	17.18503	2
	-11.92249	5.305460	17.18503	2
	-11.79821	8.532030	17.18503	2
	-11.67394	11.75859	17.18503	2
	-9.19025	3.584700	17.18503	2
	-9.06597	6.811270	17.18503	2
	-8.94170	10.03783	17.18503	2
	-8.81742	13.26439	17.18503	2
	-6.45801	1.863940	17.18503	2
	-6.33373	5.090500	17.18503	2
	-6.20946	8.317070	17.18503	2
	-6.08518	11.54363	17.18503	2
	-5.96090	14.77019	17.18503	2
	-5.83662	17.99676	17.18503	2
	-3.60149	3.369740	17.18503	2
	-3.47722	6.596310	17.18503	2
	-3.35294	9.822870	17.18503	2
	-3.22866	13.04943	17.18503	2
	-3.10438	16.27600	17.18503	2
	-0.86925	1.648980	17.18503	2
	-0.74498	4.875550	17.18503	2
	-0.62070	8.102110	17.18503	2
	-0.49642	11.32867	17.18503	2
	-0.37214	14.55523	17.18503	2
	-0.24786	17.78180	17.18503	2
	1.987260	3.154790	17.18503	2
	2.111540	6.381350	17.18503	2
	2.235820	9.607910	17.18503	2
	2.360100	12.83447	17.18503	2
	2.484380	16.06104	17.18503	2
	4.843780	4.660590	17.18503	2
	4.968060	7.887150	17.18503	2
	5.092340	11.11371	17.18503	2
	5.216620	14.34028	17.18503	2
	7.824580	9.392950	17.18503	2
	7.948860	12.61952	17.18503	2
	10.68110	10.89875	17.18503	2
	10.80538	14.12532	17.18503	2
	-16.14554	7.456890	10.14046	3
	-14.53099	4.660570	10.14046	3
	-12.91643	7.456890	10.14046	3
	-11.30188	10.25320	10.14046	3
	-9.68732	13.04951	10.14046	3
	-8.07277	15.84583	10.14046	3
	-11.30188	4.660570	10.14046	3
	-9.68732	7.456890	10.14046	3
	-8.07277	10.25320	10.14046	3
	-6.45822	13.04951	10.14046	3
	-4.84366	15.84583	10.14046	3
	-3.22911	18.64214	10.14046	3
	-8.07277	4.660570	10.14046	3
	-6.45822	7.456890	10.14046	3
	-4.84366	10.25320	10.14046	3
	-3.22911	13.04951	10.14046	3
	-1.61455	15.84583	10.14046	3
	-6.45822	1.864260	10.14046	3
	-4.84366	4.660570	10.14046	3
	-3.22911	7.456890	10.14046	3
	-1.61455	10.25320	10.14046	3
	-0.00000	13.04951	10.14046	3
	1.614550	15.84583	10.14046	3
	-3.22911	1.864260	10.14046	3
	-1.61455	4.660570	10.14046	3
	-0.00000	7.456890	10.14046	3
	1.614550	10.25320	10.14046	3
	3.229110	13.04951	10.14046	3
	4.843660	15.84583	10.14046	3
	-0.00000	1.864260	10.14046	3
	1.614550	4.660570	10.14046	3
	3.229110	7.456890	10.14046	3
	4.843660	10.25320	10.14046	3
	6.458220	13.04951	10.14046	3
	4.843660	4.660570	10.14046	3
	6.458220	7.456890	10.14046	3
	8.072770	10.25320	10.14046	3
	9.687320	13.04951	10.14046	3
	12.91643	13.04951	10.14046	3
	-17.51137	5.520650	20.43527	3
	-14.65485	7.026450	20.43527	3
	-11.92262	5.305690	20.43527	3
	-11.79834	8.532260	20.43527	3
	-11.67406	11.75882	20.43527	3
	-9.19038	3.584930	20.43527	3
	-9.06610	6.811500	20.43527	3
	-8.94182	10.03806	20.43527	3
	-8.81754	13.26462	20.43527	3
	-6.45814	1.864170	20.43527	3
	-6.33386	5.090740	20.43527	3
	-6.20958	8.317300	20.43527	3
	-6.08530	11.54386	20.43527	3
	-5.96102	14.77042	20.43527	3
	-5.83674	17.99699	20.43527	3
	-3.60162	3.369970	20.43527	3
	-3.47734	6.596540	20.43527	3
	-3.35306	9.823100	20.43527	3
	-3.22878	13.04966	20.43527	3
	-3.10450	16.27623	20.43527	3
	-0.86938	1.649210	20.43527	3
	-0.74510	4.875780	20.43527	3
	-0.62082	8.102340	20.43527	3
	-0.49654	11.32890	20.43527	3
	-0.37226	14.55547	20.43527	3
	-0.24798	17.78203	20.43527	3
	1.987140	3.155020	20.43527	3
	2.111420	6.381580	20.43527	3
	2.235700	9.608140	20.43527	3
	2.359980	12.83470	20.43527	3
	2.484260	16.06127	20.43527	3
	4.843660	4.660820	20.43527	3
	4.967940	7.887380	20.43527	3
	5.092220	11.11394	20.43527	3
	5.216500	14.34051	20.43527	3
	7.824460	9.393180	20.43527	3
	7.948740	12.61975	20.43527	3
	10.68098	10.89899	20.43527	3
	10.80526	14.12555	20.43527	3
%endblock AtomicCoordinatesAndAtomicSpecies
#------------------------------------------------------------#

#-----------------------opt parameters------------------------#
#Memory 
#Diag.Memory                2.0    #1.0

#Pseudopotentials
#Basis setting
PAO.BasisType            split
PAO.BasisSize            DZP         #SZ DZ SZP DZP
PAO.SplitNorm            0.15   
PAO.EnergyShift          110 meV     #0.02 Ry - [100,200] meV  
ElectronicTemperatur     300 K 

#Structural Relaxation 
MD.TypeOfRun             cg
MD.MaxCGDispl            0.01 Ang   #0.2 Bohr
MD.VariableCell          T
MD.PreconditionVariableCell     5.0 Ang

#Self-Consistent loop
XC.function              GGA   #LDA
XC.author           	 PBE   #PZ
SolutionMethod    	 diagon
OccupationFunction  	 FD
Spin		             non-polarized
SingleExction            T


#standard output
WriteCoorInitial         T
WriteCoorStep            T           
WriteForce               T           
WriteKpoint              T           

#optical output
WriteDM                  T
WriteCoorXmol            T
#WriteMDhistory                        F            # .false.
#WriteCoorCerius                      T              # .false.
#WriteMDXmol                           T              # .false.
#WriteDM.NetCDF          T             # .ture.
#SaveHS                  T            # .false.
#%block ProjectedDensityOfStates
#-20.00 10.00 0.200 500 eV
#%endblock ProjectedDensityOfStates
#%block LocalDensityOfStates
#-3.50 0.00 eV
#%endblock LocalDensityOfStates
#COOP.Write              T           # .false.
#SaveRho                 T            # .false.
#SaveDeltaRho            T            # .false.
#SaveElectrostaticPotential    T      # .false.
#SaveNeutralAtomPotential      T      # .false.
#SaveTotalPotential            T      # .false.
#SaveIonicCharge               T      # .false.
#SaveTotalCharge               T      # .false.
#WriteDenchar                  T      # .false.

#NectCDF
#WriteDM.NetCDF                T
#WriteDMHS.NetCDF              T
#Use.New.Diagk                 T

# Restart
#DM.UseSaveDM                          T              # .false.
#MD.UseSaveXV                          T              # .false.
#MD.UseSaveCG                          T              # .false.

#kgrid_cutoff              [6,1,1,1]    # 0.0 Bohr
#%block GridCellSampling
#0.5 0.5 0.0
#0.5 0.0 0.5
#0.0 0.5 0.5
#%endblock GridCellSampling
#FilterCutoff             200 Ry             
# it should be similar or lower than the meshcuoff to avoid
# the eggbox effect on the atomic forces.
#----------------------------------------------------------------#

#------------------ Some Important parameters--------------------#
DM.MixingWeight             0.04    
DM.NumberPulay              4    
MeshCutoff                  600 Ry
%block kgrid_Monkhorst_Pack
5 0 0 0.0
0 5 0 0.0
0 0 1 0.0
%endblock kgrid_Monkhorst_Pack
#----------------------------------------------------------------#

#----------------------Band structure ---------------------------#
#BandLinesScale    ReciprocalLatticeVectors
#%block BandLines
#1   0.00       0.00      0.00   \Gamma
#51  0.50       0.00      0.00   M
#51  0.333333   0.333333  0.00   K
#51  0.00       0.00      0.00   \Gamma
#%endblock BandLines
#----------------------------------------------------------------#

#------------------Control Iteration Parameters------------------#
MaxSCFIterations              100            
DM.Tolerance                  1.d-5         
SCFMustConverge               .false.
DM.Energy.Tolerance           1.d-4 eV
DM.Require.Energy.Convergence   T
DM.Harris.Tolerance           1.d-5 eV
DM.Require.Harris.Convergence   T

#MD.NumCGsteps                 40           
#MD.MaxForceTol                0.02 ev/Ang  
#MD.TargetPressure             0.0 GPa
#MD.MaxStressTol               1.0 GPa
#----------------------------------------------------------------#
