MoSSe                                   
   1.00000000000000     
     3.2277127933597334    0.0000000000000000    0.0000000000000000
    -1.6138563966798667    2.7952812751701237    0.0000000000000000
     0.0000000000000000    0.0000000000000000   30.2326421004120114
   Mo   Se   S 
   2     2     2
Direct
  0.3333333333333357  0.6666666666666643  0.3914914572318224
  0.6666666666666643  0.3333333333333357  0.6085085507681712
  0.3333333333333357  0.6666666666666643  0.5517851666395467
  0.6666666666666643  0.3333333333333357  0.4482148263604566
  0.3333333333333357  0.6666666666666643  0.6593932575615932
  0.6666666666666643  0.3333333333333357  0.3406067424384069
