twist14
 1.000
  9.687324237202338000    11.18525305170383700    0.000000000000000000  
  -14.5303754091341090    2.796842358262019000    0.000000000000000000  
  0.000000000000000000    0.000000000000000000    30.63477122891424300  
   Mo      Se      S    
   42      42      42   
Direct
  0.095198457430183870    0.952394570038306900    0.381167291818910100  
  0.142826944161121520    0.761916663773220600    0.381167291818910100  
  0.380919822478387240    0.809536140339492100    0.381167291818910100  
  0.619012700795652700    0.857155616905763700    0.381167291818910100  
  0.857105579112918400    0.904775093472035300    0.381167291818910100  
  0.190455430892059200    0.571438757508134000    0.381167291818910100  
  0.428548309209324850    0.619058234074405700    0.381167291818910100  
  0.666641187526590300    0.666677710640677300    0.381167291818910100  
  0.904734065843856100    0.714297187206948900    0.381167291818910100  
  -8.96069426874202e-06    0.333341374676776050    0.381167291818910100  
  0.238083917622996850    0.380960851243047700    0.381167291818910100  
  0.476176795940262500    0.428580327809319300    0.381167291818910100  
  0.714269674257528000    0.476199804375590900    0.381167291818910100  
  0.952362552574793700    0.523819280941862500    0.381167291818910100  
  0.047619526036668910    0.142863468411689620    0.381167291818910100  
  0.285712404353934500    0.190482944977961250    0.381167291818910100  
  0.523805282671200200    0.238102421544232900    0.381167291818910100  
  0.761898160988465600    0.285721898110504470    0.381167291818910100  
  0.333340891084872200    5.0387128748552446e-06    0.381167291818910100  
  0.571433769402137900    0.047624515279146460    0.381167291818910100  
  0.809526647719403300    0.095243991845418100    0.381167291818910100  
  0.095188017045501950    0.809502750064547900    0.616879506278704700  
  0.047583985826382805    0.571415020575160100    0.616879506278704700  
  0.285676220641635200    0.761889709330180600    0.616879506278704700  
  0.523768455456887500    0.952364398085200900    0.616879506278704700  
  -2.0045392736117718e-05    0.333327291085772600    0.616879506278704700  
  0.238072189422516180    0.523801979840792900    0.616879506278704700  
  0.476164424237768560    0.714276668595813300    0.616879506278704700  
  0.714256659053020800    0.904751357350833700    0.616879506278704700  
  0.190468158203397240    0.285714250351405300    0.616879506278704700  
  0.428560393018649570    0.476188939106425570    0.616879506278704700  
  0.666652627833901900    0.666663627861446100    0.616879506278704700  
  0.904744862649154200    0.857138316616466400    0.616879506278704700  
  0.142864126984278280    0.047626520862017616    0.616879506278704700  
  0.380956361799530600    0.238101209617038000    0.616879506278704700  
  0.619048596614782800    0.428575898372058340    0.616879506278704700  
  0.857140831430035400    0.619050587127078800    0.616879506278704700  
  0.333352330580411600    1.3480127650372653e-05    0.616879506278704700  
  0.571444565395664000    0.190488168882670800    0.616879506278704700  
  0.809536800210916100    0.380962857637691050    0.616879506278704700  
  0.761932768991797200    0.142875128148303440    0.616879506278704700  
  0.952420972587930600    0.095262087413936100    0.616879506278704700  
  0.190415530309445700    0.904759504725412900    0.437055553854886000  
  0.428508408626711360    0.952378981291684400    0.437055553854886000  
  -4.886127688227826e-05    0.666662121894054900    0.437055553854886000  
  0.238044017040383330    0.714281598460326600    0.437055553854886000  
  0.476136895357648900    0.761901075026598200    0.437055553854886000  
  0.714229773674914600    0.809520551592869800    0.437055553854886000  
  0.952322651992180100    0.857140028159141500    0.437055553854886000  
  0.047579625454055360    0.476184215628968500    0.437055553854886000  
  0.285672503771321030    0.523803692195240000    0.437055553854886000  
  0.523765382088586600    0.571423168761511800    0.437055553854886000  
  0.761858260405852300    0.619042645327783400    0.437055553854886000  
  0.095208112184993020    0.285706309363882140    0.437055553854886000  
  0.333300990502258640    0.333325785930153800    0.437055553854886000  
  0.571393868819524300    0.380945262496425350    0.437055553854886000  
  0.809486747136789800    0.428564739062697040    0.437055553854886000  
  0.142836598915930670    0.095228403098795720    0.437055553854886000  
  0.380929477233196300    0.142847879665067350    0.437055553854886000  
  0.619022355550461900    0.190467356231338950    0.437055553854886000  
  0.857115233867727500    0.238086832797610670    0.437055553854886000  
  0.666650842281399600    -1.055003374744734e-05    0.437055553854886000  
  0.904743720598665100    0.047608926532524300    0.437055553854886000  
  0.047548786990441320    0.904719580540383000    0.560964753612315700  
  -5.524422867769774e-05    0.666631851050995200    0.560964753612315700  
  0.238036990586574650    0.857106539806015700    0.560964753612315700  
  0.190432959367455630    0.619018810316628100    0.560964753612315700  
  0.428525194182707960    0.809493499071648500    0.560964753612315700  
  0.142828928148336640    0.380931080827240500    0.560964753612315700  
  0.380921162963589000    0.571405769582260700    0.560964753612315700  
  0.619013397778841300    0.761880458337281200    0.560964753612315700  
  0.857105632594093800    0.952355147092301700    0.560964753612315700  
  0.095224896929217660    0.142843351337852800    0.560964753612315700  
  0.333317131744470000    0.333318040092873140    0.560964753612315700  
  0.571409366559722400    0.523792728847893500    0.560964753612315700  
  0.809501601374974600    0.714267417602914000    0.560964753612315700  
  0.285713100525351000    0.095230310603485510    0.560964753612315700  
  0.523805335340603500    0.285704999358505960    0.560964753612315700  
  0.761897570155855800    0.476179688113526300    0.560964753612315700  
  0.476201304121484370    0.047617269869118210    0.560964753612315700  
  0.714293538936736700    0.238091958624138620    0.560964753612315700  
  0.952385773751989000    0.428566647379158950    0.560964753612315700  
  0.666689507717617600    4.229134750954877e-06    0.560964753612315700  
  0.904781742532869900    0.190478917889771450    0.560964753612315700  
  0.190435239382668100    0.904772644660022200    0.331011475896809850  
  0.428528117699933700    0.952392121226293700    0.331011475896809850  
  -2.9152203659871256e-05    0.666675261828664100    0.331011475896809850  
  0.238063726113605740    0.714294738394935800    0.331011475896809850  
  0.476156604430871400    0.761914214961207400    0.331011475896809850  
  0.714249482748136900    0.809533691527478900    0.331011475896809850  
  0.952342361065402600    0.857153168093750800    0.331011475896809850  
  0.047599334527277784    0.476197355563577730    0.331011475896809850  
  0.285692212844543440    0.523816832129849300    0.331011475896809850  
  0.523785091161809000    0.571436308696120900    0.331011475896809850  
  0.761877969479074600    0.619055785262392600    0.331011475896809850  
  0.095227821258215440    0.285719449298491360    0.331011475896809850  
  0.333320699575481050    0.333338925864763000    0.331011475896809850  
  0.571413577892746700    0.380958402431034570    0.331011475896809850  
  0.809506456210012300    0.428577878997306150    0.331011475896809850  
  0.142856307989153080    0.095241543033404930    0.331011475896809850  
  0.380949186306418700    0.142861019599676560    0.331011475896809850  
  0.619042064623684300    0.190480496165948200    0.331011475896809850  
  0.857134942940949900    0.238099972732219780    0.331011475896809850  
  0.666670551354621900    2.589900861771355e-06    0.331011475896809850  
  0.904763429671887600    0.047622066467133460    0.331011475896809850  
  0.047562110850549455    0.904739567170896200    0.667061403538371300  
  -4.192036856959236e-05    0.666651837681508700    0.667061403538371300  
  0.238050314446682730    0.857126526436528900    0.667061403538371300  
  0.190446283227563800    0.619038796947141400    0.667061403538371300  
  0.428538518042815950    0.809513485702161800    0.667061403538371300  
  0.142842252008444780    0.380951067457753760    0.667061403538371300  
  0.380934486823697200    0.571425756212774200    0.667061403538371300  
  0.619026721638949300    0.761900444967794400    0.667061403538371300  
  0.857118956454201800    0.952375133722814900    0.667061403538371300  
  0.095238220789325810    0.142863337968366140    0.667061403538371300  
  0.333330455604578140    0.333338026723386500    0.667061403538371300  
  0.571422690419830500    0.523812715478406900    0.667061403538371300  
  0.809514925235082600    0.714287404233427200    0.667061403538371300  
  0.285726424385459200    0.095250297233998870    0.667061403538371300  
  0.523818659200711500    0.285724985989019240    0.667061403538371300  
  0.761910894015963800    0.476199674744039570    0.667061403538371300  
  0.476214627981592530    0.047637256499631575    0.667061403538371300  
  0.714306862796844700    0.238111945254651960    0.667061403538371300  
  0.952399097612097200    0.428586634009672340    0.667061403538371300  
  0.666702831577725900    2.421576526434599e-05    0.667061403538371300  
  0.904795066392978100    0.190498904520284730    0.667061403538371300  
