#------------------ General system descriptors --------------#
SystemName        twist14
SystemLabel       twist14

NumberOfSpecies   3
NumberOfAtoms     126

%block ChemicalSpeciesLabel
	1	42	Mo
	2	34	Se
	3	16	S
%endblock ChemicalSpeciesLabel

LatticeConstant        1.0 Ang
%block LatticeVectors
	9.687300	11.18530	0.000000
	-14.5304	2.796800	0.000000
	0.000000	0.000000	30.63480
%endblock LatticeVectors

AtomicCoordinatesFormat  Ang

%block AtomicCoordinatesAndAtomicSpecies
	-12.91643	3.728520	11.67697	1
	-9.68732	3.728520	11.67697	1
	-8.07277	6.524830	11.67697	1
	-6.45822	9.321140	11.67697	1
	-4.84366	12.11746	11.67697	1
	-6.45822	3.728520	11.67697	1
	-4.84366	6.524830	11.67697	1
	-3.22911	9.321140	11.67697	1
	-1.61455	12.11746	11.67697	1
	-4.84366	0.932200	11.67697	1
	-3.22911	3.728520	11.67697	1
	-1.61455	6.524830	11.67697	1
	0.000000	9.321140	11.67697	1
	1.614550	12.11746	11.67697	1
	-1.61455	0.932200	11.67697	1
	0.000000	3.728520	11.67697	1
	1.614550	6.524830	11.67697	1
	3.229110	9.321140	11.67697	1
	3.229110	3.728520	11.67697	1
	4.843660	6.524830	11.67697	1
	6.458220	9.321140	11.67697	1
	-10.84026	3.328750	18.89796	1
	-7.84191	2.130400	18.89796	1
	-8.30311	5.326250	18.89796	1
	-8.76430	8.522100	18.89796	1
	-4.84356	0.932040	18.89796	1
	-5.30476	4.127890	18.89796	1
	-5.76595	7.323740	18.89796	1
	-6.22714	10.51959	18.89796	1
	-2.30641	2.929530	18.89796	1
	-2.76760	6.125380	18.89796	1
	-3.22879	9.321230	18.89796	1
	-3.68998	12.51708	18.89796	1
	0.691940	1.731180	18.89796	1
	0.230750	4.927020	18.89796	1
	-0.23044	8.122870	18.89796	1
	-0.69164	11.31872	18.89796	1
	3.229100	3.728670	18.89796	1
	2.767900	6.924520	18.89796	1
	2.306710	10.12037	18.89796	1
	5.305060	8.922010	18.89796	1
	7.842220	10.91950	18.89796	1
	-11.30188	4.660320	13.38910	2
	-9.68732	7.456630	13.38910	2
	-9.68732	1.864000	13.38910	2
	-8.07277	4.660320	13.38910	2
	-6.45822	7.456630	13.38910	2
	-4.84366	10.25294	13.38910	2
	-3.22911	13.04926	13.38910	2
	-6.45822	1.864000	13.38910	2
	-4.84366	4.660320	13.38910	2
	-3.22911	7.456630	13.38910	2
	-1.61455	10.25294	13.38910	2
	-3.22911	1.864000	13.38910	2
	-1.61455	4.660320	13.38910	2
	-0.00000	7.456630	13.38910	2
	1.614550	10.25294	13.38910	2
	-0.00000	1.864000	13.38910	2
	1.614550	4.660320	13.38910	2
	3.229110	7.456630	13.38910	2
	4.843660	10.25294	13.38910	2
	6.458220	7.456630	13.38910	2
	8.072770	10.25294	13.38910	2
	-12.68529	3.062200	17.18503	2
	-9.68695	1.863850	17.18503	2
	-10.14814	5.059700	17.18503	2
	-7.14979	3.861340	17.18503	2
	-7.61098	7.057190	17.18503	2
	-4.15144	2.662980	17.18503	2
	-4.61263	5.858830	17.18503	2
	-5.07383	9.054680	17.18503	2
	-5.53502	12.25053	17.18503	2
	-1.15309	1.464620	17.18503	2
	-1.61429	4.660470	17.18503	2
	-2.07548	7.856320	17.18503	2
	-2.53667	11.05217	17.18503	2
	1.384060	3.462120	17.18503	2
	0.922870	6.657970	17.18503	2
	0.461680	9.853820	17.18503	2
	3.921220	5.459610	17.18503	2
	3.460030	8.655460	17.18503	2
	2.998840	11.85131	17.18503	2
	6.458380	7.457100	17.18503	2
	5.997180	10.65295	17.18503	2
	-11.30188	4.660570	10.14046	3
	-9.68732	7.456890	10.14046	3
	-9.68732	1.864260	10.14046	3
	-8.07277	4.660570	10.14046	3
	-6.45822	7.456890	10.14046	3
	-4.84366	10.25320	10.14046	3
	-3.22911	13.04951	10.14046	3
	-6.45822	1.864260	10.14046	3
	-4.84366	4.660570	10.14046	3
	-3.22911	7.456890	10.14046	3
	-1.61455	10.25320	10.14046	3
	-3.22911	1.864260	10.14046	3
	-1.61455	4.660570	10.14046	3
	-0.00000	7.456890	10.14046	3
	1.614550	10.25320	10.14046	3
	-0.00000	1.864260	10.14046	3
	1.614550	4.660570	10.14046	3
	3.229110	7.456890	10.14046	3
	4.843660	10.25320	10.14046	3
	6.458220	7.456890	10.14046	3
	8.072770	10.25320	10.14046	3
	-12.68546	3.062410	20.43527	3
	-9.68711	1.864050	20.43527	3
	-10.1483	5.059900	20.43527	3
	-7.14995	3.861540	20.43527	3
	-7.61114	7.057390	20.43527	3
	-4.15160	2.663190	20.43527	3
	-4.61279	5.859040	20.43527	3
	-5.07399	9.054890	20.43527	3
	-5.53518	12.25074	20.43527	3
	-1.15325	1.464830	20.43527	3
	-1.61445	4.660680	20.43527	3
	-2.07564	7.856530	20.43527	3
	-2.53683	11.05238	20.43527	3
	1.383900	3.462320	20.43527	3
	0.922710	6.658170	20.43527	3
	0.461520	9.854020	20.43527	3
	3.921060	5.459820	20.43527	3
	3.459870	8.655660	20.43527	3
	2.998670	11.85151	20.43527	3
	6.458210	7.457310	20.43527	3
	5.997020	10.65316	20.43527	3
%endblock AtomicCoordinatesAndAtomicSpecies
#------------------------------------------------------------#

#-----------------------opt parameters------------------------#
#Memory 
#Diag.Memory                2.0    #1.0

#Pseudopotentials
#Basis setting
PAO.BasisType            split
PAO.BasisSize            DZP         #SZ DZ SZP DZP
PAO.SplitNorm            0.15   
PAO.EnergyShift          110 meV     #0.02 Ry - [100,200] meV  
ElectronicTemperatur     300 K 

#Structural Relaxation 
MD.TypeOfRun             cg
MD.MaxCGDispl            0.01 Ang   #0.2 Bohr
MD.VariableCell          T
MD.PreconditionVariableCell     5.0 Ang

#Self-Consistent loop
XC.function              GGA   #LDA
XC.author           	 PBE   #PZ
SolutionMethod    	 diagon
OccupationFunction  	 FD
Spin		             non-polarized
SingleExction            T


#standard output
WriteCoorInitial         T
WriteCoorStep            T           
WriteForce               T           
WriteKpoint              T           

#optical output
WriteDM                  T
WriteCoorXmol            T
#WriteMDhistory                        F            # .false.
#WriteCoorCerius                      T              # .false.
#WriteMDXmol                           T              # .false.
#WriteDM.NetCDF          T             # .ture.
#SaveHS                  T            # .false.
#%block ProjectedDensityOfStates
#-20.00 10.00 0.200 500 eV
#%endblock ProjectedDensityOfStates
#%block LocalDensityOfStates
#-3.50 0.00 eV
#%endblock LocalDensityOfStates
#COOP.Write              T           # .false.
#SaveRho                 T            # .false.
#SaveDeltaRho            T            # .false.
#SaveElectrostaticPotential    T      # .false.
#SaveNeutralAtomPotential      T      # .false.
#SaveTotalPotential            T      # .false.
#SaveIonicCharge               T      # .false.
#SaveTotalCharge               T      # .false.
#WriteDenchar                  T      # .false.

#NectCDF
#WriteDM.NetCDF                T
#WriteDMHS.NetCDF              T
#Use.New.Diagk                 T

# Restart
#DM.UseSaveDM                          T              # .false.
#MD.UseSaveXV                          T              # .false.
#MD.UseSaveCG                          T              # .false.

#kgrid_cutoff              [6,1,1,1]    # 0.0 Bohr
#%block GridCellSampling
#0.5 0.5 0.0
#0.5 0.0 0.5
#0.0 0.5 0.5
#%endblock GridCellSampling
#FilterCutoff             200 Ry             
# it should be similar or lower than the meshcuoff to avoid
# the eggbox effect on the atomic forces.
#----------------------------------------------------------------#

#------------------ Some Important parameters--------------------#
DM.MixingWeight             0.04    
DM.NumberPulay              4    
MeshCutoff                  600 Ry
%block kgrid_Monkhorst_Pack
5 0 0 0.0
0 5 0 0.0
0 0 1 0.0
%endblock kgrid_Monkhorst_Pack
#----------------------------------------------------------------#

#----------------------Band structure ---------------------------#
#BandLinesScale    ReciprocalLatticeVectors
#%block BandLines
#1   0.00       0.00      0.00   \Gamma
#51  0.50       0.00      0.00   M
#51  0.333333   0.333333  0.00   K
#51  0.00       0.00      0.00   \Gamma
#%endblock BandLines
#----------------------------------------------------------------#

#------------------Control Iteration Parameters------------------#
MaxSCFIterations              100            
DM.Tolerance                  1.d-5         
SCFMustConverge               .false.
DM.Energy.Tolerance           1.d-4 eV
DM.Require.Energy.Convergence   T
DM.Harris.Tolerance           1.d-5 eV
DM.Require.Harris.Convergence   T

#MD.NumCGsteps                 40           
#MD.MaxForceTol                0.02 ev/Ang  
#MD.TargetPressure             0.0 GPa
#MD.MaxStressTol               1.0 GPa
#----------------------------------------------------------------#
