#------------------ General system descriptors --------------#
SystemName        twist12
SystemLabel       twist12

NumberOfSpecies   3
NumberOfAtoms     42

%block ChemicalSpeciesLabel
	1	42	Mo
	2	16	S
	3	34	Se
%endblock ChemicalSpeciesLabel

LatticeConstant        1.0 Ang
%block LatticeVectors
	8.544200	0.000000	0.000000
	-4.27210	7.399500	0.000000
	0.000000	0.000000	32.96440
%endblock LatticeVectors

AtomicCoordinatesFormat  Ang

%block AtomicCoordinatesAndAtomicSpecies
	-0.60700	1.764950	13.05890	1
	-2.44010	7.042690	13.05890	1
	0.000000	4.932990	13.06150	1
	2.443880	2.820930	13.06424	1
	4.879260	0.706000	13.06424	1
	3.047100	5.991340	13.05890	1
	5.493160	3.872560	13.06424	1
	1.832720	0.358770	19.98452	1
	-1.82705	4.580800	19.97751	1
	1.218510	3.526830	19.97751	1
	4.272090	2.466510	19.98473	1
	7.317140	1.407820	19.98452	1
	0.608490	6.691350	19.97751	1
	3.666420	5.632940	19.98452	1
	-1.21951	3.525120	11.52480	2
	1.224580	1.409540	11.52416	2
	-0.60950	6.693060	11.52480	2
	1.829010	4.580800	11.52480	2
	4.272100	2.466500	11.52584	2
	6.711200	0.355740	11.52416	2
	4.880510	5.634200	11.52416	2
	0.605680	1.767920	21.51878	2
	3.666080	0.701380	21.51933	2
	-3.04390	5.990980	21.51878	2
	-2e-0500	4.932990	21.51624	2
	3.046440	3.873900	21.51933	2
	6.103740	2.824260	21.51933	2
	2.438160	7.040080	21.51878	2
	-1.21455	3.525010	14.77761	3
	1.224860	1.404400	14.76690	3
	-0.61207	6.688820	14.77761	3
	1.826620	4.585150	14.77761	3
	4.272100	2.466500	14.78383	3
	6.715510	0.358560	14.76690	3
	4.875910	5.636520	14.76690	3
	0.598430	1.764000	18.27437	3
	3.663550	0.711300	18.26576	3
	-3.04367	5.999220	18.27437	3
	-2e-0500	4.932990	18.25697	3
	3.056300	3.871130	18.26576	3
	6.096410	2.817110	18.26576	3
	2.445180	7.035760	18.27437	3
%endblock AtomicCoordinatesAndAtomicSpecies
#------------------------------------------------------------#

#-----------------------opt parameters------------------------#
#Memory 
#Diag.Memory                2.0    #1.0

#Pseudopotentials
#Basis setting
PAO.BasisType            split
PAO.BasisSize            DZP         #SZ DZ SZP DZP
PAO.SplitNorm            0.15   
PAO.EnergyShift          110 meV     #0.02 Ry - [100,200] meV  
ElectronicTemperatur     300 K 

#Structural Relaxation 
MD.TypeOfRun             cg
MD.MaxCGDispl            0.01 Ang   #0.2 Bohr
MD.VariableCell          T
MD.PreconditionVariableCell     5.0 Ang

#Self-Consistent loop
XC.function              GGA   #LDA
XC.author           	 PBE   #PZ
SolutionMethod    	 diagon
OccupationFunction  	 FD
spinPolarized		 T
SingleExction            T


#standard output
WriteCoorInitial         T
WriteCoorStep            T           
WriteForce               T           
WriteKpoint              T           

#optical output
WriteDM                  T
WriteCoorXmol            T
#WriteMDhistory                        F            # .false.
#WriteCoorCerius                      T              # .false.
#WriteMDXmol                           T              # .false.
#WriteDM.NetCDF          T             # .ture.
#SaveHS                  T            # .false.
#%block ProjectedDensityOfStates
#-20.00 10.00 0.200 500 eV
#%endblock ProjectedDensityOfStates
#%block LocalDensityOfStates
#-3.50 0.00 eV
#%endblock LocalDensityOfStates
#COOP.Write              T           # .false.
#SaveRho                 T            # .false.
#SaveDeltaRho            T            # .false.
#SaveElectrostaticPotential    T      # .false.
#SaveNeutralAtomPotential      T      # .false.
#SaveTotalPotential            T      # .false.
#SaveIonicCharge               T      # .false.
#SaveTotalCharge               T      # .false.
#WriteDenchar                  T      # .false.

#NectCDF
#WriteDM.NetCDF                T
#WriteDMHS.NetCDF              T
#Use.New.Diagk                 T

# Restart
#DM.UseSaveDM                          T              # .false.
#MD.UseSaveXV                          T              # .false.
#MD.UseSaveCG                          T              # .false.

#kgrid_cutoff              [6,1,1,1]    # 0.0 Bohr
#%block GridCellSampling
#0.5 0.5 0.0
#0.5 0.0 0.5
#0.0 0.5 0.5
#%endblock GridCellSampling
#FilterCutoff             200 Ry             
# it should be similar or lower than the meshcuoff to avoid
# the eggbox effect on the atomic forces.
#----------------------------------------------------------------#

#------------------ Some Important parameters--------------------#
DM.MixingWeight             0.04    
DM.NumberPulay              4    
MeshCutoff                  600 Ry
%block kgrid_Monkhorst_Pack
5 0 0 0.0
0 5 0 0.0
0 0 1 0.0
%endblock kgrid_Monkhorst_Pack
#----------------------------------------------------------------#

#----------------------Band structure ---------------------------#
#BandLinesScale    ReciprocalLatticeVectors
#%block BandLines
#1   0.00       0.00      0.00   \Gamma
#51  0.50       0.00      0.00   M
#51  0.333333   0.333333  0.00   K
#51  0.00       0.00      0.00   \Gamma
#%endblock BandLines
#----------------------------------------------------------------#

#------------------Control Iteration Parameters------------------#
MaxSCFIterations              60            
DM.Tolerance                  1.d-5         
SCFMustConverge               .false.
DM.Energy.Tolerance           1.d-4 eV
DM.Require.Energy.Convergence   T
DM.Harris.Tolerance           1.d-5 eV
DM.Require.Harris.Convergence   T

#MD.NumCGsteps                 40           
#MD.MaxForceTol                0.02 ev/Ang  
#MD.TargetPressure             0.0 GPa
#MD.MaxStressTol               1.0 GPa
#----------------------------------------------------------------#
